*HEADING
V2 multi-track Balbaa2022-parity mesh: 4x4x0.04mm layer @40um on 4x4x0.4mm substrate, substrate-mode=graded (D-V2-05/06/07). Units m, build axis z.
*NODE
1, 0.0000000000e+00, 0.0000000000e+00, 0.0000000000e+00
2, 4.0000000000e-05, 0.0000000000e+00, 0.0000000000e+00
3, 8.0000000000e-05, 0.0000000000e+00, 0.0000000000e+00
4, 1.2000000000e-04, 0.0000000000e+00, 0.0000000000e+00
5, 1.6000000000e-04, 0.0000000000e+00, 0.0000000000e+00
6, 2.0000000000e-04, 0.0000000000e+00, 0.0000000000e+00
7, 2.4000000000e-04, 0.0000000000e+00, 0.0000000000e+00
8, 2.8000000000e-04, 0.0000000000e+00, 0.0000000000e+00
9, 3.2000000000e-04, 0.0000000000e+00, 0.0000000000e+00
10, 3.6000000000e-04, 0.0000000000e+00, 0.0000000000e+00
11, 4.0000000000e-04, 0.0000000000e+00, 0.0000000000e+00
12, 4.4000000000e-04, 0.0000000000e+00, 0.0000000000e+00
13, 4.8000000000e-04, 0.0000000000e+00, 0.0000000000e+00
14, 5.2000000000e-04, 0.0000000000e+00, 0.0000000000e+00
15, 5.6000000000e-04, 0.0000000000e+00, 0.0000000000e+00
16, 6.0000000000e-04, 0.0000000000e+00, 0.0000000000e+00
17, 6.4000000000e-04, 0.0000000000e+00, 0.0000000000e+00
18, 6.8000000000e-04, 0.0000000000e+00, 0.0000000000e+00
19, 7.2000000000e-04, 0.0000000000e+00, 0.0000000000e+00
20, 7.6000000000e-04, 0.0000000000e+00, 0.0000000000e+00
21, 8.0000000000e-04, 0.0000000000e+00, 0.0000000000e+00
22, 8.4000000000e-04, 0.0000000000e+00, 0.0000000000e+00
23, 8.8000000000e-04, 0.0000000000e+00, 0.0000000000e+00
24, 9.2000000000e-04, 0.0000000000e+00, 0.0000000000e+00
25, 9.6000000000e-04, 0.0000000000e+00, 0.0000000000e+00
26, 1.0000000000e-03, 0.0000000000e+00, 0.0000000000e+00
27, 0.0000000000e+00, 4.0000000000e-05, 0.0000000000e+00
28, 4.0000000000e-05, 4.0000000000e-05, 0.0000000000e+00
29, 8.0000000000e-05, 4.0000000000e-05, 0.0000000000e+00
30, 1.2000000000e-04, 4.0000000000e-05, 0.0000000000e+00
31, 1.6000000000e-04, 4.0000000000e-05, 0.0000000000e+00
32, 2.0000000000e-04, 4.0000000000e-05, 0.0000000000e+00
33, 2.4000000000e-04, 4.0000000000e-05, 0.0000000000e+00
34, 2.8000000000e-04, 4.0000000000e-05, 0.0000000000e+00
35, 3.2000000000e-04, 4.0000000000e-05, 0.0000000000e+00
36, 3.6000000000e-04, 4.0000000000e-05, 0.0000000000e+00
37, 4.0000000000e-04, 4.0000000000e-05, 0.0000000000e+00
38, 4.4000000000e-04, 4.0000000000e-05, 0.0000000000e+00
39, 4.8000000000e-04, 4.0000000000e-05, 0.0000000000e+00
40, 5.2000000000e-04, 4.0000000000e-05, 0.0000000000e+00
41, 5.6000000000e-04, 4.0000000000e-05, 0.0000000000e+00
42, 6.0000000000e-04, 4.0000000000e-05, 0.0000000000e+00
43, 6.4000000000e-04, 4.0000000000e-05, 0.0000000000e+00
44, 6.8000000000e-04, 4.0000000000e-05, 0.0000000000e+00
45, 7.2000000000e-04, 4.0000000000e-05, 0.0000000000e+00
46, 7.6000000000e-04, 4.0000000000e-05, 0.0000000000e+00
47, 8.0000000000e-04, 4.0000000000e-05, 0.0000000000e+00
48, 8.4000000000e-04, 4.0000000000e-05, 0.0000000000e+00
49, 8.8000000000e-04, 4.0000000000e-05, 0.0000000000e+00
50, 9.2000000000e-04, 4.0000000000e-05, 0.0000000000e+00
51, 9.6000000000e-04, 4.0000000000e-05, 0.0000000000e+00
52, 1.0000000000e-03, 4.0000000000e-05, 0.0000000000e+00
53, 0.0000000000e+00, 8.0000000000e-05, 0.0000000000e+00
54, 4.0000000000e-05, 8.0000000000e-05, 0.0000000000e+00
55, 8.0000000000e-05, 8.0000000000e-05, 0.0000000000e+00
56, 1.2000000000e-04, 8.0000000000e-05, 0.0000000000e+00
57, 1.6000000000e-04, 8.0000000000e-05, 0.0000000000e+00
58, 2.0000000000e-04, 8.0000000000e-05, 0.0000000000e+00
59, 2.4000000000e-04, 8.0000000000e-05, 0.0000000000e+00
60, 2.8000000000e-04, 8.0000000000e-05, 0.0000000000e+00
61, 3.2000000000e-04, 8.0000000000e-05, 0.0000000000e+00
62, 3.6000000000e-04, 8.0000000000e-05, 0.0000000000e+00
63, 4.0000000000e-04, 8.0000000000e-05, 0.0000000000e+00
64, 4.4000000000e-04, 8.0000000000e-05, 0.0000000000e+00
65, 4.8000000000e-04, 8.0000000000e-05, 0.0000000000e+00
66, 5.2000000000e-04, 8.0000000000e-05, 0.0000000000e+00
67, 5.6000000000e-04, 8.0000000000e-05, 0.0000000000e+00
68, 6.0000000000e-04, 8.0000000000e-05, 0.0000000000e+00
69, 6.4000000000e-04, 8.0000000000e-05, 0.0000000000e+00
70, 6.8000000000e-04, 8.0000000000e-05, 0.0000000000e+00
71, 7.2000000000e-04, 8.0000000000e-05, 0.0000000000e+00
72, 7.6000000000e-04, 8.0000000000e-05, 0.0000000000e+00
73, 8.0000000000e-04, 8.0000000000e-05, 0.0000000000e+00
74, 8.4000000000e-04, 8.0000000000e-05, 0.0000000000e+00
75, 8.8000000000e-04, 8.0000000000e-05, 0.0000000000e+00
76, 9.2000000000e-04, 8.0000000000e-05, 0.0000000000e+00
77, 9.6000000000e-04, 8.0000000000e-05, 0.0000000000e+00
78, 1.0000000000e-03, 8.0000000000e-05, 0.0000000000e+00
79, 0.0000000000e+00, 1.2000000000e-04, 0.0000000000e+00
80, 4.0000000000e-05, 1.2000000000e-04, 0.0000000000e+00
81, 8.0000000000e-05, 1.2000000000e-04, 0.0000000000e+00
82, 1.2000000000e-04, 1.2000000000e-04, 0.0000000000e+00
83, 1.6000000000e-04, 1.2000000000e-04, 0.0000000000e+00
84, 2.0000000000e-04, 1.2000000000e-04, 0.0000000000e+00
85, 2.4000000000e-04, 1.2000000000e-04, 0.0000000000e+00
86, 2.8000000000e-04, 1.2000000000e-04, 0.0000000000e+00
87, 3.2000000000e-04, 1.2000000000e-04, 0.0000000000e+00
88, 3.6000000000e-04, 1.2000000000e-04, 0.0000000000e+00
89, 4.0000000000e-04, 1.2000000000e-04, 0.0000000000e+00
90, 4.4000000000e-04, 1.2000000000e-04, 0.0000000000e+00
91, 4.8000000000e-04, 1.2000000000e-04, 0.0000000000e+00
92, 5.2000000000e-04, 1.2000000000e-04, 0.0000000000e+00
93, 5.6000000000e-04, 1.2000000000e-04, 0.0000000000e+00
94, 6.0000000000e-04, 1.2000000000e-04, 0.0000000000e+00
95, 6.4000000000e-04, 1.2000000000e-04, 0.0000000000e+00
96, 6.8000000000e-04, 1.2000000000e-04, 0.0000000000e+00
97, 7.2000000000e-04, 1.2000000000e-04, 0.0000000000e+00
98, 7.6000000000e-04, 1.2000000000e-04, 0.0000000000e+00
99, 8.0000000000e-04, 1.2000000000e-04, 0.0000000000e+00
100, 8.4000000000e-04, 1.2000000000e-04, 0.0000000000e+00
101, 8.8000000000e-04, 1.2000000000e-04, 0.0000000000e+00
102, 9.2000000000e-04, 1.2000000000e-04, 0.0000000000e+00
103, 9.6000000000e-04, 1.2000000000e-04, 0.0000000000e+00
104, 1.0000000000e-03, 1.2000000000e-04, 0.0000000000e+00
105, 0.0000000000e+00, 1.6000000000e-04, 0.0000000000e+00
106, 4.0000000000e-05, 1.6000000000e-04, 0.0000000000e+00
107, 8.0000000000e-05, 1.6000000000e-04, 0.0000000000e+00
108, 1.2000000000e-04, 1.6000000000e-04, 0.0000000000e+00
109, 1.6000000000e-04, 1.6000000000e-04, 0.0000000000e+00
110, 2.0000000000e-04, 1.6000000000e-04, 0.0000000000e+00
111, 2.4000000000e-04, 1.6000000000e-04, 0.0000000000e+00
112, 2.8000000000e-04, 1.6000000000e-04, 0.0000000000e+00
113, 3.2000000000e-04, 1.6000000000e-04, 0.0000000000e+00
114, 3.6000000000e-04, 1.6000000000e-04, 0.0000000000e+00
115, 4.0000000000e-04, 1.6000000000e-04, 0.0000000000e+00
116, 4.4000000000e-04, 1.6000000000e-04, 0.0000000000e+00
117, 4.8000000000e-04, 1.6000000000e-04, 0.0000000000e+00
118, 5.2000000000e-04, 1.6000000000e-04, 0.0000000000e+00
119, 5.6000000000e-04, 1.6000000000e-04, 0.0000000000e+00
120, 6.0000000000e-04, 1.6000000000e-04, 0.0000000000e+00
121, 6.4000000000e-04, 1.6000000000e-04, 0.0000000000e+00
122, 6.8000000000e-04, 1.6000000000e-04, 0.0000000000e+00
123, 7.2000000000e-04, 1.6000000000e-04, 0.0000000000e+00
124, 7.6000000000e-04, 1.6000000000e-04, 0.0000000000e+00
125, 8.0000000000e-04, 1.6000000000e-04, 0.0000000000e+00
126, 8.4000000000e-04, 1.6000000000e-04, 0.0000000000e+00
127, 8.8000000000e-04, 1.6000000000e-04, 0.0000000000e+00
128, 9.2000000000e-04, 1.6000000000e-04, 0.0000000000e+00
129, 9.6000000000e-04, 1.6000000000e-04, 0.0000000000e+00
130, 1.0000000000e-03, 1.6000000000e-04, 0.0000000000e+00
131, 0.0000000000e+00, 2.0000000000e-04, 0.0000000000e+00
132, 4.0000000000e-05, 2.0000000000e-04, 0.0000000000e+00
133, 8.0000000000e-05, 2.0000000000e-04, 0.0000000000e+00
134, 1.2000000000e-04, 2.0000000000e-04, 0.0000000000e+00
135, 1.6000000000e-04, 2.0000000000e-04, 0.0000000000e+00
136, 2.0000000000e-04, 2.0000000000e-04, 0.0000000000e+00
137, 2.4000000000e-04, 2.0000000000e-04, 0.0000000000e+00
138, 2.8000000000e-04, 2.0000000000e-04, 0.0000000000e+00
139, 3.2000000000e-04, 2.0000000000e-04, 0.0000000000e+00
140, 3.6000000000e-04, 2.0000000000e-04, 0.0000000000e+00
141, 4.0000000000e-04, 2.0000000000e-04, 0.0000000000e+00
142, 4.4000000000e-04, 2.0000000000e-04, 0.0000000000e+00
143, 4.8000000000e-04, 2.0000000000e-04, 0.0000000000e+00
144, 5.2000000000e-04, 2.0000000000e-04, 0.0000000000e+00
145, 5.6000000000e-04, 2.0000000000e-04, 0.0000000000e+00
146, 6.0000000000e-04, 2.0000000000e-04, 0.0000000000e+00
147, 6.4000000000e-04, 2.0000000000e-04, 0.0000000000e+00
148, 6.8000000000e-04, 2.0000000000e-04, 0.0000000000e+00
149, 7.2000000000e-04, 2.0000000000e-04, 0.0000000000e+00
150, 7.6000000000e-04, 2.0000000000e-04, 0.0000000000e+00
151, 8.0000000000e-04, 2.0000000000e-04, 0.0000000000e+00
152, 8.4000000000e-04, 2.0000000000e-04, 0.0000000000e+00
153, 8.8000000000e-04, 2.0000000000e-04, 0.0000000000e+00
154, 9.2000000000e-04, 2.0000000000e-04, 0.0000000000e+00
155, 9.6000000000e-04, 2.0000000000e-04, 0.0000000000e+00
156, 1.0000000000e-03, 2.0000000000e-04, 0.0000000000e+00
157, 0.0000000000e+00, 2.4000000000e-04, 0.0000000000e+00
158, 4.0000000000e-05, 2.4000000000e-04, 0.0000000000e+00
159, 8.0000000000e-05, 2.4000000000e-04, 0.0000000000e+00
160, 1.2000000000e-04, 2.4000000000e-04, 0.0000000000e+00
161, 1.6000000000e-04, 2.4000000000e-04, 0.0000000000e+00
162, 2.0000000000e-04, 2.4000000000e-04, 0.0000000000e+00
163, 2.4000000000e-04, 2.4000000000e-04, 0.0000000000e+00
164, 2.8000000000e-04, 2.4000000000e-04, 0.0000000000e+00
165, 3.2000000000e-04, 2.4000000000e-04, 0.0000000000e+00
166, 3.6000000000e-04, 2.4000000000e-04, 0.0000000000e+00
167, 4.0000000000e-04, 2.4000000000e-04, 0.0000000000e+00
168, 4.4000000000e-04, 2.4000000000e-04, 0.0000000000e+00
169, 4.8000000000e-04, 2.4000000000e-04, 0.0000000000e+00
170, 5.2000000000e-04, 2.4000000000e-04, 0.0000000000e+00
171, 5.6000000000e-04, 2.4000000000e-04, 0.0000000000e+00
172, 6.0000000000e-04, 2.4000000000e-04, 0.0000000000e+00
173, 6.4000000000e-04, 2.4000000000e-04, 0.0000000000e+00
174, 6.8000000000e-04, 2.4000000000e-04, 0.0000000000e+00
175, 7.2000000000e-04, 2.4000000000e-04, 0.0000000000e+00
176, 7.6000000000e-04, 2.4000000000e-04, 0.0000000000e+00
177, 8.0000000000e-04, 2.4000000000e-04, 0.0000000000e+00
178, 8.4000000000e-04, 2.4000000000e-04, 0.0000000000e+00
179, 8.8000000000e-04, 2.4000000000e-04, 0.0000000000e+00
180, 9.2000000000e-04, 2.4000000000e-04, 0.0000000000e+00
181, 9.6000000000e-04, 2.4000000000e-04, 0.0000000000e+00
182, 1.0000000000e-03, 2.4000000000e-04, 0.0000000000e+00
183, 0.0000000000e+00, 2.8000000000e-04, 0.0000000000e+00
184, 4.0000000000e-05, 2.8000000000e-04, 0.0000000000e+00
185, 8.0000000000e-05, 2.8000000000e-04, 0.0000000000e+00
186, 1.2000000000e-04, 2.8000000000e-04, 0.0000000000e+00
187, 1.6000000000e-04, 2.8000000000e-04, 0.0000000000e+00
188, 2.0000000000e-04, 2.8000000000e-04, 0.0000000000e+00
189, 2.4000000000e-04, 2.8000000000e-04, 0.0000000000e+00
190, 2.8000000000e-04, 2.8000000000e-04, 0.0000000000e+00
191, 3.2000000000e-04, 2.8000000000e-04, 0.0000000000e+00
192, 3.6000000000e-04, 2.8000000000e-04, 0.0000000000e+00
193, 4.0000000000e-04, 2.8000000000e-04, 0.0000000000e+00
194, 4.4000000000e-04, 2.8000000000e-04, 0.0000000000e+00
195, 4.8000000000e-04, 2.8000000000e-04, 0.0000000000e+00
196, 5.2000000000e-04, 2.8000000000e-04, 0.0000000000e+00
197, 5.6000000000e-04, 2.8000000000e-04, 0.0000000000e+00
198, 6.0000000000e-04, 2.8000000000e-04, 0.0000000000e+00
199, 6.4000000000e-04, 2.8000000000e-04, 0.0000000000e+00
200, 6.8000000000e-04, 2.8000000000e-04, 0.0000000000e+00
201, 7.2000000000e-04, 2.8000000000e-04, 0.0000000000e+00
202, 7.6000000000e-04, 2.8000000000e-04, 0.0000000000e+00
203, 8.0000000000e-04, 2.8000000000e-04, 0.0000000000e+00
204, 8.4000000000e-04, 2.8000000000e-04, 0.0000000000e+00
205, 8.8000000000e-04, 2.8000000000e-04, 0.0000000000e+00
206, 9.2000000000e-04, 2.8000000000e-04, 0.0000000000e+00
207, 9.6000000000e-04, 2.8000000000e-04, 0.0000000000e+00
208, 1.0000000000e-03, 2.8000000000e-04, 0.0000000000e+00
209, 0.0000000000e+00, 3.2000000000e-04, 0.0000000000e+00
210, 4.0000000000e-05, 3.2000000000e-04, 0.0000000000e+00
211, 8.0000000000e-05, 3.2000000000e-04, 0.0000000000e+00
212, 1.2000000000e-04, 3.2000000000e-04, 0.0000000000e+00
213, 1.6000000000e-04, 3.2000000000e-04, 0.0000000000e+00
214, 2.0000000000e-04, 3.2000000000e-04, 0.0000000000e+00
215, 2.4000000000e-04, 3.2000000000e-04, 0.0000000000e+00
216, 2.8000000000e-04, 3.2000000000e-04, 0.0000000000e+00
217, 3.2000000000e-04, 3.2000000000e-04, 0.0000000000e+00
218, 3.6000000000e-04, 3.2000000000e-04, 0.0000000000e+00
219, 4.0000000000e-04, 3.2000000000e-04, 0.0000000000e+00
220, 4.4000000000e-04, 3.2000000000e-04, 0.0000000000e+00
221, 4.8000000000e-04, 3.2000000000e-04, 0.0000000000e+00
222, 5.2000000000e-04, 3.2000000000e-04, 0.0000000000e+00
223, 5.6000000000e-04, 3.2000000000e-04, 0.0000000000e+00
224, 6.0000000000e-04, 3.2000000000e-04, 0.0000000000e+00
225, 6.4000000000e-04, 3.2000000000e-04, 0.0000000000e+00
226, 6.8000000000e-04, 3.2000000000e-04, 0.0000000000e+00
227, 7.2000000000e-04, 3.2000000000e-04, 0.0000000000e+00
228, 7.6000000000e-04, 3.2000000000e-04, 0.0000000000e+00
229, 8.0000000000e-04, 3.2000000000e-04, 0.0000000000e+00
230, 8.4000000000e-04, 3.2000000000e-04, 0.0000000000e+00
231, 8.8000000000e-04, 3.2000000000e-04, 0.0000000000e+00
232, 9.2000000000e-04, 3.2000000000e-04, 0.0000000000e+00
233, 9.6000000000e-04, 3.2000000000e-04, 0.0000000000e+00
234, 1.0000000000e-03, 3.2000000000e-04, 0.0000000000e+00
235, 0.0000000000e+00, 3.6000000000e-04, 0.0000000000e+00
236, 4.0000000000e-05, 3.6000000000e-04, 0.0000000000e+00
237, 8.0000000000e-05, 3.6000000000e-04, 0.0000000000e+00
238, 1.2000000000e-04, 3.6000000000e-04, 0.0000000000e+00
239, 1.6000000000e-04, 3.6000000000e-04, 0.0000000000e+00
240, 2.0000000000e-04, 3.6000000000e-04, 0.0000000000e+00
241, 2.4000000000e-04, 3.6000000000e-04, 0.0000000000e+00
242, 2.8000000000e-04, 3.6000000000e-04, 0.0000000000e+00
243, 3.2000000000e-04, 3.6000000000e-04, 0.0000000000e+00
244, 3.6000000000e-04, 3.6000000000e-04, 0.0000000000e+00
245, 4.0000000000e-04, 3.6000000000e-04, 0.0000000000e+00
246, 4.4000000000e-04, 3.6000000000e-04, 0.0000000000e+00
247, 4.8000000000e-04, 3.6000000000e-04, 0.0000000000e+00
248, 5.2000000000e-04, 3.6000000000e-04, 0.0000000000e+00
249, 5.6000000000e-04, 3.6000000000e-04, 0.0000000000e+00
250, 6.0000000000e-04, 3.6000000000e-04, 0.0000000000e+00
251, 6.4000000000e-04, 3.6000000000e-04, 0.0000000000e+00
252, 6.8000000000e-04, 3.6000000000e-04, 0.0000000000e+00
253, 7.2000000000e-04, 3.6000000000e-04, 0.0000000000e+00
254, 7.6000000000e-04, 3.6000000000e-04, 0.0000000000e+00
255, 8.0000000000e-04, 3.6000000000e-04, 0.0000000000e+00
256, 8.4000000000e-04, 3.6000000000e-04, 0.0000000000e+00
257, 8.8000000000e-04, 3.6000000000e-04, 0.0000000000e+00
258, 9.2000000000e-04, 3.6000000000e-04, 0.0000000000e+00
259, 9.6000000000e-04, 3.6000000000e-04, 0.0000000000e+00
260, 1.0000000000e-03, 3.6000000000e-04, 0.0000000000e+00
261, 0.0000000000e+00, 4.0000000000e-04, 0.0000000000e+00
262, 4.0000000000e-05, 4.0000000000e-04, 0.0000000000e+00
263, 8.0000000000e-05, 4.0000000000e-04, 0.0000000000e+00
264, 1.2000000000e-04, 4.0000000000e-04, 0.0000000000e+00
265, 1.6000000000e-04, 4.0000000000e-04, 0.0000000000e+00
266, 2.0000000000e-04, 4.0000000000e-04, 0.0000000000e+00
267, 2.4000000000e-04, 4.0000000000e-04, 0.0000000000e+00
268, 2.8000000000e-04, 4.0000000000e-04, 0.0000000000e+00
269, 3.2000000000e-04, 4.0000000000e-04, 0.0000000000e+00
270, 3.6000000000e-04, 4.0000000000e-04, 0.0000000000e+00
271, 4.0000000000e-04, 4.0000000000e-04, 0.0000000000e+00
272, 4.4000000000e-04, 4.0000000000e-04, 0.0000000000e+00
273, 4.8000000000e-04, 4.0000000000e-04, 0.0000000000e+00
274, 5.2000000000e-04, 4.0000000000e-04, 0.0000000000e+00
275, 5.6000000000e-04, 4.0000000000e-04, 0.0000000000e+00
276, 6.0000000000e-04, 4.0000000000e-04, 0.0000000000e+00
277, 6.4000000000e-04, 4.0000000000e-04, 0.0000000000e+00
278, 6.8000000000e-04, 4.0000000000e-04, 0.0000000000e+00
279, 7.2000000000e-04, 4.0000000000e-04, 0.0000000000e+00
280, 7.6000000000e-04, 4.0000000000e-04, 0.0000000000e+00
281, 8.0000000000e-04, 4.0000000000e-04, 0.0000000000e+00
282, 8.4000000000e-04, 4.0000000000e-04, 0.0000000000e+00
283, 8.8000000000e-04, 4.0000000000e-04, 0.0000000000e+00
284, 9.2000000000e-04, 4.0000000000e-04, 0.0000000000e+00
285, 9.6000000000e-04, 4.0000000000e-04, 0.0000000000e+00
286, 1.0000000000e-03, 4.0000000000e-04, 0.0000000000e+00
287, 0.0000000000e+00, 4.4000000000e-04, 0.0000000000e+00
288, 4.0000000000e-05, 4.4000000000e-04, 0.0000000000e+00
289, 8.0000000000e-05, 4.4000000000e-04, 0.0000000000e+00
290, 1.2000000000e-04, 4.4000000000e-04, 0.0000000000e+00
291, 1.6000000000e-04, 4.4000000000e-04, 0.0000000000e+00
292, 2.0000000000e-04, 4.4000000000e-04, 0.0000000000e+00
293, 2.4000000000e-04, 4.4000000000e-04, 0.0000000000e+00
294, 2.8000000000e-04, 4.4000000000e-04, 0.0000000000e+00
295, 3.2000000000e-04, 4.4000000000e-04, 0.0000000000e+00
296, 3.6000000000e-04, 4.4000000000e-04, 0.0000000000e+00
297, 4.0000000000e-04, 4.4000000000e-04, 0.0000000000e+00
298, 4.4000000000e-04, 4.4000000000e-04, 0.0000000000e+00
299, 4.8000000000e-04, 4.4000000000e-04, 0.0000000000e+00
300, 5.2000000000e-04, 4.4000000000e-04, 0.0000000000e+00
301, 5.6000000000e-04, 4.4000000000e-04, 0.0000000000e+00
302, 6.0000000000e-04, 4.4000000000e-04, 0.0000000000e+00
303, 6.4000000000e-04, 4.4000000000e-04, 0.0000000000e+00
304, 6.8000000000e-04, 4.4000000000e-04, 0.0000000000e+00
305, 7.2000000000e-04, 4.4000000000e-04, 0.0000000000e+00
306, 7.6000000000e-04, 4.4000000000e-04, 0.0000000000e+00
307, 8.0000000000e-04, 4.4000000000e-04, 0.0000000000e+00
308, 8.4000000000e-04, 4.4000000000e-04, 0.0000000000e+00
309, 8.8000000000e-04, 4.4000000000e-04, 0.0000000000e+00
310, 9.2000000000e-04, 4.4000000000e-04, 0.0000000000e+00
311, 9.6000000000e-04, 4.4000000000e-04, 0.0000000000e+00
312, 1.0000000000e-03, 4.4000000000e-04, 0.0000000000e+00
313, 0.0000000000e+00, 4.8000000000e-04, 0.0000000000e+00
314, 4.0000000000e-05, 4.8000000000e-04, 0.0000000000e+00
315, 8.0000000000e-05, 4.8000000000e-04, 0.0000000000e+00
316, 1.2000000000e-04, 4.8000000000e-04, 0.0000000000e+00
317, 1.6000000000e-04, 4.8000000000e-04, 0.0000000000e+00
318, 2.0000000000e-04, 4.8000000000e-04, 0.0000000000e+00
319, 2.4000000000e-04, 4.8000000000e-04, 0.0000000000e+00
320, 2.8000000000e-04, 4.8000000000e-04, 0.0000000000e+00
321, 3.2000000000e-04, 4.8000000000e-04, 0.0000000000e+00
322, 3.6000000000e-04, 4.8000000000e-04, 0.0000000000e+00
323, 4.0000000000e-04, 4.8000000000e-04, 0.0000000000e+00
324, 4.4000000000e-04, 4.8000000000e-04, 0.0000000000e+00
325, 4.8000000000e-04, 4.8000000000e-04, 0.0000000000e+00
326, 5.2000000000e-04, 4.8000000000e-04, 0.0000000000e+00
327, 5.6000000000e-04, 4.8000000000e-04, 0.0000000000e+00
328, 6.0000000000e-04, 4.8000000000e-04, 0.0000000000e+00
329, 6.4000000000e-04, 4.8000000000e-04, 0.0000000000e+00
330, 6.8000000000e-04, 4.8000000000e-04, 0.0000000000e+00
331, 7.2000000000e-04, 4.8000000000e-04, 0.0000000000e+00
332, 7.6000000000e-04, 4.8000000000e-04, 0.0000000000e+00
333, 8.0000000000e-04, 4.8000000000e-04, 0.0000000000e+00
334, 8.4000000000e-04, 4.8000000000e-04, 0.0000000000e+00
335, 8.8000000000e-04, 4.8000000000e-04, 0.0000000000e+00
336, 9.2000000000e-04, 4.8000000000e-04, 0.0000000000e+00
337, 9.6000000000e-04, 4.8000000000e-04, 0.0000000000e+00
338, 1.0000000000e-03, 4.8000000000e-04, 0.0000000000e+00
339, 0.0000000000e+00, 5.2000000000e-04, 0.0000000000e+00
340, 4.0000000000e-05, 5.2000000000e-04, 0.0000000000e+00
341, 8.0000000000e-05, 5.2000000000e-04, 0.0000000000e+00
342, 1.2000000000e-04, 5.2000000000e-04, 0.0000000000e+00
343, 1.6000000000e-04, 5.2000000000e-04, 0.0000000000e+00
344, 2.0000000000e-04, 5.2000000000e-04, 0.0000000000e+00
345, 2.4000000000e-04, 5.2000000000e-04, 0.0000000000e+00
346, 2.8000000000e-04, 5.2000000000e-04, 0.0000000000e+00
347, 3.2000000000e-04, 5.2000000000e-04, 0.0000000000e+00
348, 3.6000000000e-04, 5.2000000000e-04, 0.0000000000e+00
349, 4.0000000000e-04, 5.2000000000e-04, 0.0000000000e+00
350, 4.4000000000e-04, 5.2000000000e-04, 0.0000000000e+00
351, 4.8000000000e-04, 5.2000000000e-04, 0.0000000000e+00
352, 5.2000000000e-04, 5.2000000000e-04, 0.0000000000e+00
353, 5.6000000000e-04, 5.2000000000e-04, 0.0000000000e+00
354, 6.0000000000e-04, 5.2000000000e-04, 0.0000000000e+00
355, 6.4000000000e-04, 5.2000000000e-04, 0.0000000000e+00
356, 6.8000000000e-04, 5.2000000000e-04, 0.0000000000e+00
357, 7.2000000000e-04, 5.2000000000e-04, 0.0000000000e+00
358, 7.6000000000e-04, 5.2000000000e-04, 0.0000000000e+00
359, 8.0000000000e-04, 5.2000000000e-04, 0.0000000000e+00
360, 8.4000000000e-04, 5.2000000000e-04, 0.0000000000e+00
361, 8.8000000000e-04, 5.2000000000e-04, 0.0000000000e+00
362, 9.2000000000e-04, 5.2000000000e-04, 0.0000000000e+00
363, 9.6000000000e-04, 5.2000000000e-04, 0.0000000000e+00
364, 1.0000000000e-03, 5.2000000000e-04, 0.0000000000e+00
365, 0.0000000000e+00, 5.6000000000e-04, 0.0000000000e+00
366, 4.0000000000e-05, 5.6000000000e-04, 0.0000000000e+00
367, 8.0000000000e-05, 5.6000000000e-04, 0.0000000000e+00
368, 1.2000000000e-04, 5.6000000000e-04, 0.0000000000e+00
369, 1.6000000000e-04, 5.6000000000e-04, 0.0000000000e+00
370, 2.0000000000e-04, 5.6000000000e-04, 0.0000000000e+00
371, 2.4000000000e-04, 5.6000000000e-04, 0.0000000000e+00
372, 2.8000000000e-04, 5.6000000000e-04, 0.0000000000e+00
373, 3.2000000000e-04, 5.6000000000e-04, 0.0000000000e+00
374, 3.6000000000e-04, 5.6000000000e-04, 0.0000000000e+00
375, 4.0000000000e-04, 5.6000000000e-04, 0.0000000000e+00
376, 4.4000000000e-04, 5.6000000000e-04, 0.0000000000e+00
377, 4.8000000000e-04, 5.6000000000e-04, 0.0000000000e+00
378, 5.2000000000e-04, 5.6000000000e-04, 0.0000000000e+00
379, 5.6000000000e-04, 5.6000000000e-04, 0.0000000000e+00
380, 6.0000000000e-04, 5.6000000000e-04, 0.0000000000e+00
381, 6.4000000000e-04, 5.6000000000e-04, 0.0000000000e+00
382, 6.8000000000e-04, 5.6000000000e-04, 0.0000000000e+00
383, 7.2000000000e-04, 5.6000000000e-04, 0.0000000000e+00
384, 7.6000000000e-04, 5.6000000000e-04, 0.0000000000e+00
385, 8.0000000000e-04, 5.6000000000e-04, 0.0000000000e+00
386, 8.4000000000e-04, 5.6000000000e-04, 0.0000000000e+00
387, 8.8000000000e-04, 5.6000000000e-04, 0.0000000000e+00
388, 9.2000000000e-04, 5.6000000000e-04, 0.0000000000e+00
389, 9.6000000000e-04, 5.6000000000e-04, 0.0000000000e+00
390, 1.0000000000e-03, 5.6000000000e-04, 0.0000000000e+00
391, 0.0000000000e+00, 6.0000000000e-04, 0.0000000000e+00
392, 4.0000000000e-05, 6.0000000000e-04, 0.0000000000e+00
393, 8.0000000000e-05, 6.0000000000e-04, 0.0000000000e+00
394, 1.2000000000e-04, 6.0000000000e-04, 0.0000000000e+00
395, 1.6000000000e-04, 6.0000000000e-04, 0.0000000000e+00
396, 2.0000000000e-04, 6.0000000000e-04, 0.0000000000e+00
397, 2.4000000000e-04, 6.0000000000e-04, 0.0000000000e+00
398, 2.8000000000e-04, 6.0000000000e-04, 0.0000000000e+00
399, 3.2000000000e-04, 6.0000000000e-04, 0.0000000000e+00
400, 3.6000000000e-04, 6.0000000000e-04, 0.0000000000e+00
401, 4.0000000000e-04, 6.0000000000e-04, 0.0000000000e+00
402, 4.4000000000e-04, 6.0000000000e-04, 0.0000000000e+00
403, 4.8000000000e-04, 6.0000000000e-04, 0.0000000000e+00
404, 5.2000000000e-04, 6.0000000000e-04, 0.0000000000e+00
405, 5.6000000000e-04, 6.0000000000e-04, 0.0000000000e+00
406, 6.0000000000e-04, 6.0000000000e-04, 0.0000000000e+00
407, 6.4000000000e-04, 6.0000000000e-04, 0.0000000000e+00
408, 6.8000000000e-04, 6.0000000000e-04, 0.0000000000e+00
409, 7.2000000000e-04, 6.0000000000e-04, 0.0000000000e+00
410, 7.6000000000e-04, 6.0000000000e-04, 0.0000000000e+00
411, 8.0000000000e-04, 6.0000000000e-04, 0.0000000000e+00
412, 8.4000000000e-04, 6.0000000000e-04, 0.0000000000e+00
413, 8.8000000000e-04, 6.0000000000e-04, 0.0000000000e+00
414, 9.2000000000e-04, 6.0000000000e-04, 0.0000000000e+00
415, 9.6000000000e-04, 6.0000000000e-04, 0.0000000000e+00
416, 1.0000000000e-03, 6.0000000000e-04, 0.0000000000e+00
417, 0.0000000000e+00, 0.0000000000e+00, 4.0000000000e-05
418, 4.0000000000e-05, 0.0000000000e+00, 4.0000000000e-05
419, 8.0000000000e-05, 0.0000000000e+00, 4.0000000000e-05
420, 1.2000000000e-04, 0.0000000000e+00, 4.0000000000e-05
421, 1.6000000000e-04, 0.0000000000e+00, 4.0000000000e-05
422, 2.0000000000e-04, 0.0000000000e+00, 4.0000000000e-05
423, 2.4000000000e-04, 0.0000000000e+00, 4.0000000000e-05
424, 2.8000000000e-04, 0.0000000000e+00, 4.0000000000e-05
425, 3.2000000000e-04, 0.0000000000e+00, 4.0000000000e-05
426, 3.6000000000e-04, 0.0000000000e+00, 4.0000000000e-05
427, 4.0000000000e-04, 0.0000000000e+00, 4.0000000000e-05
428, 4.4000000000e-04, 0.0000000000e+00, 4.0000000000e-05
429, 4.8000000000e-04, 0.0000000000e+00, 4.0000000000e-05
430, 5.2000000000e-04, 0.0000000000e+00, 4.0000000000e-05
431, 5.6000000000e-04, 0.0000000000e+00, 4.0000000000e-05
432, 6.0000000000e-04, 0.0000000000e+00, 4.0000000000e-05
433, 6.4000000000e-04, 0.0000000000e+00, 4.0000000000e-05
434, 6.8000000000e-04, 0.0000000000e+00, 4.0000000000e-05
435, 7.2000000000e-04, 0.0000000000e+00, 4.0000000000e-05
436, 7.6000000000e-04, 0.0000000000e+00, 4.0000000000e-05
437, 8.0000000000e-04, 0.0000000000e+00, 4.0000000000e-05
438, 8.4000000000e-04, 0.0000000000e+00, 4.0000000000e-05
439, 8.8000000000e-04, 0.0000000000e+00, 4.0000000000e-05
440, 9.2000000000e-04, 0.0000000000e+00, 4.0000000000e-05
441, 9.6000000000e-04, 0.0000000000e+00, 4.0000000000e-05
442, 1.0000000000e-03, 0.0000000000e+00, 4.0000000000e-05
443, 0.0000000000e+00, 4.0000000000e-05, 4.0000000000e-05
444, 4.0000000000e-05, 4.0000000000e-05, 4.0000000000e-05
445, 8.0000000000e-05, 4.0000000000e-05, 4.0000000000e-05
446, 1.2000000000e-04, 4.0000000000e-05, 4.0000000000e-05
447, 1.6000000000e-04, 4.0000000000e-05, 4.0000000000e-05
448, 2.0000000000e-04, 4.0000000000e-05, 4.0000000000e-05
449, 2.4000000000e-04, 4.0000000000e-05, 4.0000000000e-05
450, 2.8000000000e-04, 4.0000000000e-05, 4.0000000000e-05
451, 3.2000000000e-04, 4.0000000000e-05, 4.0000000000e-05
452, 3.6000000000e-04, 4.0000000000e-05, 4.0000000000e-05
453, 4.0000000000e-04, 4.0000000000e-05, 4.0000000000e-05
454, 4.4000000000e-04, 4.0000000000e-05, 4.0000000000e-05
455, 4.8000000000e-04, 4.0000000000e-05, 4.0000000000e-05
456, 5.2000000000e-04, 4.0000000000e-05, 4.0000000000e-05
457, 5.6000000000e-04, 4.0000000000e-05, 4.0000000000e-05
458, 6.0000000000e-04, 4.0000000000e-05, 4.0000000000e-05
459, 6.4000000000e-04, 4.0000000000e-05, 4.0000000000e-05
460, 6.8000000000e-04, 4.0000000000e-05, 4.0000000000e-05
461, 7.2000000000e-04, 4.0000000000e-05, 4.0000000000e-05
462, 7.6000000000e-04, 4.0000000000e-05, 4.0000000000e-05
463, 8.0000000000e-04, 4.0000000000e-05, 4.0000000000e-05
464, 8.4000000000e-04, 4.0000000000e-05, 4.0000000000e-05
465, 8.8000000000e-04, 4.0000000000e-05, 4.0000000000e-05
466, 9.2000000000e-04, 4.0000000000e-05, 4.0000000000e-05
467, 9.6000000000e-04, 4.0000000000e-05, 4.0000000000e-05
468, 1.0000000000e-03, 4.0000000000e-05, 4.0000000000e-05
469, 0.0000000000e+00, 8.0000000000e-05, 4.0000000000e-05
470, 4.0000000000e-05, 8.0000000000e-05, 4.0000000000e-05
471, 8.0000000000e-05, 8.0000000000e-05, 4.0000000000e-05
472, 1.2000000000e-04, 8.0000000000e-05, 4.0000000000e-05
473, 1.6000000000e-04, 8.0000000000e-05, 4.0000000000e-05
474, 2.0000000000e-04, 8.0000000000e-05, 4.0000000000e-05
475, 2.4000000000e-04, 8.0000000000e-05, 4.0000000000e-05
476, 2.8000000000e-04, 8.0000000000e-05, 4.0000000000e-05
477, 3.2000000000e-04, 8.0000000000e-05, 4.0000000000e-05
478, 3.6000000000e-04, 8.0000000000e-05, 4.0000000000e-05
479, 4.0000000000e-04, 8.0000000000e-05, 4.0000000000e-05
480, 4.4000000000e-04, 8.0000000000e-05, 4.0000000000e-05
481, 4.8000000000e-04, 8.0000000000e-05, 4.0000000000e-05
482, 5.2000000000e-04, 8.0000000000e-05, 4.0000000000e-05
483, 5.6000000000e-04, 8.0000000000e-05, 4.0000000000e-05
484, 6.0000000000e-04, 8.0000000000e-05, 4.0000000000e-05
485, 6.4000000000e-04, 8.0000000000e-05, 4.0000000000e-05
486, 6.8000000000e-04, 8.0000000000e-05, 4.0000000000e-05
487, 7.2000000000e-04, 8.0000000000e-05, 4.0000000000e-05
488, 7.6000000000e-04, 8.0000000000e-05, 4.0000000000e-05
489, 8.0000000000e-04, 8.0000000000e-05, 4.0000000000e-05
490, 8.4000000000e-04, 8.0000000000e-05, 4.0000000000e-05
491, 8.8000000000e-04, 8.0000000000e-05, 4.0000000000e-05
492, 9.2000000000e-04, 8.0000000000e-05, 4.0000000000e-05
493, 9.6000000000e-04, 8.0000000000e-05, 4.0000000000e-05
494, 1.0000000000e-03, 8.0000000000e-05, 4.0000000000e-05
495, 0.0000000000e+00, 1.2000000000e-04, 4.0000000000e-05
496, 4.0000000000e-05, 1.2000000000e-04, 4.0000000000e-05
497, 8.0000000000e-05, 1.2000000000e-04, 4.0000000000e-05
498, 1.2000000000e-04, 1.2000000000e-04, 4.0000000000e-05
499, 1.6000000000e-04, 1.2000000000e-04, 4.0000000000e-05
500, 2.0000000000e-04, 1.2000000000e-04, 4.0000000000e-05
501, 2.4000000000e-04, 1.2000000000e-04, 4.0000000000e-05
502, 2.8000000000e-04, 1.2000000000e-04, 4.0000000000e-05
503, 3.2000000000e-04, 1.2000000000e-04, 4.0000000000e-05
504, 3.6000000000e-04, 1.2000000000e-04, 4.0000000000e-05
505, 4.0000000000e-04, 1.2000000000e-04, 4.0000000000e-05
506, 4.4000000000e-04, 1.2000000000e-04, 4.0000000000e-05
507, 4.8000000000e-04, 1.2000000000e-04, 4.0000000000e-05
508, 5.2000000000e-04, 1.2000000000e-04, 4.0000000000e-05
509, 5.6000000000e-04, 1.2000000000e-04, 4.0000000000e-05
510, 6.0000000000e-04, 1.2000000000e-04, 4.0000000000e-05
511, 6.4000000000e-04, 1.2000000000e-04, 4.0000000000e-05
512, 6.8000000000e-04, 1.2000000000e-04, 4.0000000000e-05
513, 7.2000000000e-04, 1.2000000000e-04, 4.0000000000e-05
514, 7.6000000000e-04, 1.2000000000e-04, 4.0000000000e-05
515, 8.0000000000e-04, 1.2000000000e-04, 4.0000000000e-05
516, 8.4000000000e-04, 1.2000000000e-04, 4.0000000000e-05
517, 8.8000000000e-04, 1.2000000000e-04, 4.0000000000e-05
518, 9.2000000000e-04, 1.2000000000e-04, 4.0000000000e-05
519, 9.6000000000e-04, 1.2000000000e-04, 4.0000000000e-05
520, 1.0000000000e-03, 1.2000000000e-04, 4.0000000000e-05
521, 0.0000000000e+00, 1.6000000000e-04, 4.0000000000e-05
522, 4.0000000000e-05, 1.6000000000e-04, 4.0000000000e-05
523, 8.0000000000e-05, 1.6000000000e-04, 4.0000000000e-05
524, 1.2000000000e-04, 1.6000000000e-04, 4.0000000000e-05
525, 1.6000000000e-04, 1.6000000000e-04, 4.0000000000e-05
526, 2.0000000000e-04, 1.6000000000e-04, 4.0000000000e-05
527, 2.4000000000e-04, 1.6000000000e-04, 4.0000000000e-05
528, 2.8000000000e-04, 1.6000000000e-04, 4.0000000000e-05
529, 3.2000000000e-04, 1.6000000000e-04, 4.0000000000e-05
530, 3.6000000000e-04, 1.6000000000e-04, 4.0000000000e-05
531, 4.0000000000e-04, 1.6000000000e-04, 4.0000000000e-05
532, 4.4000000000e-04, 1.6000000000e-04, 4.0000000000e-05
533, 4.8000000000e-04, 1.6000000000e-04, 4.0000000000e-05
534, 5.2000000000e-04, 1.6000000000e-04, 4.0000000000e-05
535, 5.6000000000e-04, 1.6000000000e-04, 4.0000000000e-05
536, 6.0000000000e-04, 1.6000000000e-04, 4.0000000000e-05
537, 6.4000000000e-04, 1.6000000000e-04, 4.0000000000e-05
538, 6.8000000000e-04, 1.6000000000e-04, 4.0000000000e-05
539, 7.2000000000e-04, 1.6000000000e-04, 4.0000000000e-05
540, 7.6000000000e-04, 1.6000000000e-04, 4.0000000000e-05
541, 8.0000000000e-04, 1.6000000000e-04, 4.0000000000e-05
542, 8.4000000000e-04, 1.6000000000e-04, 4.0000000000e-05
543, 8.8000000000e-04, 1.6000000000e-04, 4.0000000000e-05
544, 9.2000000000e-04, 1.6000000000e-04, 4.0000000000e-05
545, 9.6000000000e-04, 1.6000000000e-04, 4.0000000000e-05
546, 1.0000000000e-03, 1.6000000000e-04, 4.0000000000e-05
547, 0.0000000000e+00, 2.0000000000e-04, 4.0000000000e-05
548, 4.0000000000e-05, 2.0000000000e-04, 4.0000000000e-05
549, 8.0000000000e-05, 2.0000000000e-04, 4.0000000000e-05
550, 1.2000000000e-04, 2.0000000000e-04, 4.0000000000e-05
551, 1.6000000000e-04, 2.0000000000e-04, 4.0000000000e-05
552, 2.0000000000e-04, 2.0000000000e-04, 4.0000000000e-05
553, 2.4000000000e-04, 2.0000000000e-04, 4.0000000000e-05
554, 2.8000000000e-04, 2.0000000000e-04, 4.0000000000e-05
555, 3.2000000000e-04, 2.0000000000e-04, 4.0000000000e-05
556, 3.6000000000e-04, 2.0000000000e-04, 4.0000000000e-05
557, 4.0000000000e-04, 2.0000000000e-04, 4.0000000000e-05
558, 4.4000000000e-04, 2.0000000000e-04, 4.0000000000e-05
559, 4.8000000000e-04, 2.0000000000e-04, 4.0000000000e-05
560, 5.2000000000e-04, 2.0000000000e-04, 4.0000000000e-05
561, 5.6000000000e-04, 2.0000000000e-04, 4.0000000000e-05
562, 6.0000000000e-04, 2.0000000000e-04, 4.0000000000e-05
563, 6.4000000000e-04, 2.0000000000e-04, 4.0000000000e-05
564, 6.8000000000e-04, 2.0000000000e-04, 4.0000000000e-05
565, 7.2000000000e-04, 2.0000000000e-04, 4.0000000000e-05
566, 7.6000000000e-04, 2.0000000000e-04, 4.0000000000e-05
567, 8.0000000000e-04, 2.0000000000e-04, 4.0000000000e-05
568, 8.4000000000e-04, 2.0000000000e-04, 4.0000000000e-05
569, 8.8000000000e-04, 2.0000000000e-04, 4.0000000000e-05
570, 9.2000000000e-04, 2.0000000000e-04, 4.0000000000e-05
571, 9.6000000000e-04, 2.0000000000e-04, 4.0000000000e-05
572, 1.0000000000e-03, 2.0000000000e-04, 4.0000000000e-05
573, 0.0000000000e+00, 2.4000000000e-04, 4.0000000000e-05
574, 4.0000000000e-05, 2.4000000000e-04, 4.0000000000e-05
575, 8.0000000000e-05, 2.4000000000e-04, 4.0000000000e-05
576, 1.2000000000e-04, 2.4000000000e-04, 4.0000000000e-05
577, 1.6000000000e-04, 2.4000000000e-04, 4.0000000000e-05
578, 2.0000000000e-04, 2.4000000000e-04, 4.0000000000e-05
579, 2.4000000000e-04, 2.4000000000e-04, 4.0000000000e-05
580, 2.8000000000e-04, 2.4000000000e-04, 4.0000000000e-05
581, 3.2000000000e-04, 2.4000000000e-04, 4.0000000000e-05
582, 3.6000000000e-04, 2.4000000000e-04, 4.0000000000e-05
583, 4.0000000000e-04, 2.4000000000e-04, 4.0000000000e-05
584, 4.4000000000e-04, 2.4000000000e-04, 4.0000000000e-05
585, 4.8000000000e-04, 2.4000000000e-04, 4.0000000000e-05
586, 5.2000000000e-04, 2.4000000000e-04, 4.0000000000e-05
587, 5.6000000000e-04, 2.4000000000e-04, 4.0000000000e-05
588, 6.0000000000e-04, 2.4000000000e-04, 4.0000000000e-05
589, 6.4000000000e-04, 2.4000000000e-04, 4.0000000000e-05
590, 6.8000000000e-04, 2.4000000000e-04, 4.0000000000e-05
591, 7.2000000000e-04, 2.4000000000e-04, 4.0000000000e-05
592, 7.6000000000e-04, 2.4000000000e-04, 4.0000000000e-05
593, 8.0000000000e-04, 2.4000000000e-04, 4.0000000000e-05
594, 8.4000000000e-04, 2.4000000000e-04, 4.0000000000e-05
595, 8.8000000000e-04, 2.4000000000e-04, 4.0000000000e-05
596, 9.2000000000e-04, 2.4000000000e-04, 4.0000000000e-05
597, 9.6000000000e-04, 2.4000000000e-04, 4.0000000000e-05
598, 1.0000000000e-03, 2.4000000000e-04, 4.0000000000e-05
599, 0.0000000000e+00, 2.8000000000e-04, 4.0000000000e-05
600, 4.0000000000e-05, 2.8000000000e-04, 4.0000000000e-05
601, 8.0000000000e-05, 2.8000000000e-04, 4.0000000000e-05
602, 1.2000000000e-04, 2.8000000000e-04, 4.0000000000e-05
603, 1.6000000000e-04, 2.8000000000e-04, 4.0000000000e-05
604, 2.0000000000e-04, 2.8000000000e-04, 4.0000000000e-05
605, 2.4000000000e-04, 2.8000000000e-04, 4.0000000000e-05
606, 2.8000000000e-04, 2.8000000000e-04, 4.0000000000e-05
607, 3.2000000000e-04, 2.8000000000e-04, 4.0000000000e-05
608, 3.6000000000e-04, 2.8000000000e-04, 4.0000000000e-05
609, 4.0000000000e-04, 2.8000000000e-04, 4.0000000000e-05
610, 4.4000000000e-04, 2.8000000000e-04, 4.0000000000e-05
611, 4.8000000000e-04, 2.8000000000e-04, 4.0000000000e-05
612, 5.2000000000e-04, 2.8000000000e-04, 4.0000000000e-05
613, 5.6000000000e-04, 2.8000000000e-04, 4.0000000000e-05
614, 6.0000000000e-04, 2.8000000000e-04, 4.0000000000e-05
615, 6.4000000000e-04, 2.8000000000e-04, 4.0000000000e-05
616, 6.8000000000e-04, 2.8000000000e-04, 4.0000000000e-05
617, 7.2000000000e-04, 2.8000000000e-04, 4.0000000000e-05
618, 7.6000000000e-04, 2.8000000000e-04, 4.0000000000e-05
619, 8.0000000000e-04, 2.8000000000e-04, 4.0000000000e-05
620, 8.4000000000e-04, 2.8000000000e-04, 4.0000000000e-05
621, 8.8000000000e-04, 2.8000000000e-04, 4.0000000000e-05
622, 9.2000000000e-04, 2.8000000000e-04, 4.0000000000e-05
623, 9.6000000000e-04, 2.8000000000e-04, 4.0000000000e-05
624, 1.0000000000e-03, 2.8000000000e-04, 4.0000000000e-05
625, 0.0000000000e+00, 3.2000000000e-04, 4.0000000000e-05
626, 4.0000000000e-05, 3.2000000000e-04, 4.0000000000e-05
627, 8.0000000000e-05, 3.2000000000e-04, 4.0000000000e-05
628, 1.2000000000e-04, 3.2000000000e-04, 4.0000000000e-05
629, 1.6000000000e-04, 3.2000000000e-04, 4.0000000000e-05
630, 2.0000000000e-04, 3.2000000000e-04, 4.0000000000e-05
631, 2.4000000000e-04, 3.2000000000e-04, 4.0000000000e-05
632, 2.8000000000e-04, 3.2000000000e-04, 4.0000000000e-05
633, 3.2000000000e-04, 3.2000000000e-04, 4.0000000000e-05
634, 3.6000000000e-04, 3.2000000000e-04, 4.0000000000e-05
635, 4.0000000000e-04, 3.2000000000e-04, 4.0000000000e-05
636, 4.4000000000e-04, 3.2000000000e-04, 4.0000000000e-05
637, 4.8000000000e-04, 3.2000000000e-04, 4.0000000000e-05
638, 5.2000000000e-04, 3.2000000000e-04, 4.0000000000e-05
639, 5.6000000000e-04, 3.2000000000e-04, 4.0000000000e-05
640, 6.0000000000e-04, 3.2000000000e-04, 4.0000000000e-05
641, 6.4000000000e-04, 3.2000000000e-04, 4.0000000000e-05
642, 6.8000000000e-04, 3.2000000000e-04, 4.0000000000e-05
643, 7.2000000000e-04, 3.2000000000e-04, 4.0000000000e-05
644, 7.6000000000e-04, 3.2000000000e-04, 4.0000000000e-05
645, 8.0000000000e-04, 3.2000000000e-04, 4.0000000000e-05
646, 8.4000000000e-04, 3.2000000000e-04, 4.0000000000e-05
647, 8.8000000000e-04, 3.2000000000e-04, 4.0000000000e-05
648, 9.2000000000e-04, 3.2000000000e-04, 4.0000000000e-05
649, 9.6000000000e-04, 3.2000000000e-04, 4.0000000000e-05
650, 1.0000000000e-03, 3.2000000000e-04, 4.0000000000e-05
651, 0.0000000000e+00, 3.6000000000e-04, 4.0000000000e-05
652, 4.0000000000e-05, 3.6000000000e-04, 4.0000000000e-05
653, 8.0000000000e-05, 3.6000000000e-04, 4.0000000000e-05
654, 1.2000000000e-04, 3.6000000000e-04, 4.0000000000e-05
655, 1.6000000000e-04, 3.6000000000e-04, 4.0000000000e-05
656, 2.0000000000e-04, 3.6000000000e-04, 4.0000000000e-05
657, 2.4000000000e-04, 3.6000000000e-04, 4.0000000000e-05
658, 2.8000000000e-04, 3.6000000000e-04, 4.0000000000e-05
659, 3.2000000000e-04, 3.6000000000e-04, 4.0000000000e-05
660, 3.6000000000e-04, 3.6000000000e-04, 4.0000000000e-05
661, 4.0000000000e-04, 3.6000000000e-04, 4.0000000000e-05
662, 4.4000000000e-04, 3.6000000000e-04, 4.0000000000e-05
663, 4.8000000000e-04, 3.6000000000e-04, 4.0000000000e-05
664, 5.2000000000e-04, 3.6000000000e-04, 4.0000000000e-05
665, 5.6000000000e-04, 3.6000000000e-04, 4.0000000000e-05
666, 6.0000000000e-04, 3.6000000000e-04, 4.0000000000e-05
667, 6.4000000000e-04, 3.6000000000e-04, 4.0000000000e-05
668, 6.8000000000e-04, 3.6000000000e-04, 4.0000000000e-05
669, 7.2000000000e-04, 3.6000000000e-04, 4.0000000000e-05
670, 7.6000000000e-04, 3.6000000000e-04, 4.0000000000e-05
671, 8.0000000000e-04, 3.6000000000e-04, 4.0000000000e-05
672, 8.4000000000e-04, 3.6000000000e-04, 4.0000000000e-05
673, 8.8000000000e-04, 3.6000000000e-04, 4.0000000000e-05
674, 9.2000000000e-04, 3.6000000000e-04, 4.0000000000e-05
675, 9.6000000000e-04, 3.6000000000e-04, 4.0000000000e-05
676, 1.0000000000e-03, 3.6000000000e-04, 4.0000000000e-05
677, 0.0000000000e+00, 4.0000000000e-04, 4.0000000000e-05
678, 4.0000000000e-05, 4.0000000000e-04, 4.0000000000e-05
679, 8.0000000000e-05, 4.0000000000e-04, 4.0000000000e-05
680, 1.2000000000e-04, 4.0000000000e-04, 4.0000000000e-05
681, 1.6000000000e-04, 4.0000000000e-04, 4.0000000000e-05
682, 2.0000000000e-04, 4.0000000000e-04, 4.0000000000e-05
683, 2.4000000000e-04, 4.0000000000e-04, 4.0000000000e-05
684, 2.8000000000e-04, 4.0000000000e-04, 4.0000000000e-05
685, 3.2000000000e-04, 4.0000000000e-04, 4.0000000000e-05
686, 3.6000000000e-04, 4.0000000000e-04, 4.0000000000e-05
687, 4.0000000000e-04, 4.0000000000e-04, 4.0000000000e-05
688, 4.4000000000e-04, 4.0000000000e-04, 4.0000000000e-05
689, 4.8000000000e-04, 4.0000000000e-04, 4.0000000000e-05
690, 5.2000000000e-04, 4.0000000000e-04, 4.0000000000e-05
691, 5.6000000000e-04, 4.0000000000e-04, 4.0000000000e-05
692, 6.0000000000e-04, 4.0000000000e-04, 4.0000000000e-05
693, 6.4000000000e-04, 4.0000000000e-04, 4.0000000000e-05
694, 6.8000000000e-04, 4.0000000000e-04, 4.0000000000e-05
695, 7.2000000000e-04, 4.0000000000e-04, 4.0000000000e-05
696, 7.6000000000e-04, 4.0000000000e-04, 4.0000000000e-05
697, 8.0000000000e-04, 4.0000000000e-04, 4.0000000000e-05
698, 8.4000000000e-04, 4.0000000000e-04, 4.0000000000e-05
699, 8.8000000000e-04, 4.0000000000e-04, 4.0000000000e-05
700, 9.2000000000e-04, 4.0000000000e-04, 4.0000000000e-05
701, 9.6000000000e-04, 4.0000000000e-04, 4.0000000000e-05
702, 1.0000000000e-03, 4.0000000000e-04, 4.0000000000e-05
703, 0.0000000000e+00, 4.4000000000e-04, 4.0000000000e-05
704, 4.0000000000e-05, 4.4000000000e-04, 4.0000000000e-05
705, 8.0000000000e-05, 4.4000000000e-04, 4.0000000000e-05
706, 1.2000000000e-04, 4.4000000000e-04, 4.0000000000e-05
707, 1.6000000000e-04, 4.4000000000e-04, 4.0000000000e-05
708, 2.0000000000e-04, 4.4000000000e-04, 4.0000000000e-05
709, 2.4000000000e-04, 4.4000000000e-04, 4.0000000000e-05
710, 2.8000000000e-04, 4.4000000000e-04, 4.0000000000e-05
711, 3.2000000000e-04, 4.4000000000e-04, 4.0000000000e-05
712, 3.6000000000e-04, 4.4000000000e-04, 4.0000000000e-05
713, 4.0000000000e-04, 4.4000000000e-04, 4.0000000000e-05
714, 4.4000000000e-04, 4.4000000000e-04, 4.0000000000e-05
715, 4.8000000000e-04, 4.4000000000e-04, 4.0000000000e-05
716, 5.2000000000e-04, 4.4000000000e-04, 4.0000000000e-05
717, 5.6000000000e-04, 4.4000000000e-04, 4.0000000000e-05
718, 6.0000000000e-04, 4.4000000000e-04, 4.0000000000e-05
719, 6.4000000000e-04, 4.4000000000e-04, 4.0000000000e-05
720, 6.8000000000e-04, 4.4000000000e-04, 4.0000000000e-05
721, 7.2000000000e-04, 4.4000000000e-04, 4.0000000000e-05
722, 7.6000000000e-04, 4.4000000000e-04, 4.0000000000e-05
723, 8.0000000000e-04, 4.4000000000e-04, 4.0000000000e-05
724, 8.4000000000e-04, 4.4000000000e-04, 4.0000000000e-05
725, 8.8000000000e-04, 4.4000000000e-04, 4.0000000000e-05
726, 9.2000000000e-04, 4.4000000000e-04, 4.0000000000e-05
727, 9.6000000000e-04, 4.4000000000e-04, 4.0000000000e-05
728, 1.0000000000e-03, 4.4000000000e-04, 4.0000000000e-05
729, 0.0000000000e+00, 4.8000000000e-04, 4.0000000000e-05
730, 4.0000000000e-05, 4.8000000000e-04, 4.0000000000e-05
731, 8.0000000000e-05, 4.8000000000e-04, 4.0000000000e-05
732, 1.2000000000e-04, 4.8000000000e-04, 4.0000000000e-05
733, 1.6000000000e-04, 4.8000000000e-04, 4.0000000000e-05
734, 2.0000000000e-04, 4.8000000000e-04, 4.0000000000e-05
735, 2.4000000000e-04, 4.8000000000e-04, 4.0000000000e-05
736, 2.8000000000e-04, 4.8000000000e-04, 4.0000000000e-05
737, 3.2000000000e-04, 4.8000000000e-04, 4.0000000000e-05
738, 3.6000000000e-04, 4.8000000000e-04, 4.0000000000e-05
739, 4.0000000000e-04, 4.8000000000e-04, 4.0000000000e-05
740, 4.4000000000e-04, 4.8000000000e-04, 4.0000000000e-05
741, 4.8000000000e-04, 4.8000000000e-04, 4.0000000000e-05
742, 5.2000000000e-04, 4.8000000000e-04, 4.0000000000e-05
743, 5.6000000000e-04, 4.8000000000e-04, 4.0000000000e-05
744, 6.0000000000e-04, 4.8000000000e-04, 4.0000000000e-05
745, 6.4000000000e-04, 4.8000000000e-04, 4.0000000000e-05
746, 6.8000000000e-04, 4.8000000000e-04, 4.0000000000e-05
747, 7.2000000000e-04, 4.8000000000e-04, 4.0000000000e-05
748, 7.6000000000e-04, 4.8000000000e-04, 4.0000000000e-05
749, 8.0000000000e-04, 4.8000000000e-04, 4.0000000000e-05
750, 8.4000000000e-04, 4.8000000000e-04, 4.0000000000e-05
751, 8.8000000000e-04, 4.8000000000e-04, 4.0000000000e-05
752, 9.2000000000e-04, 4.8000000000e-04, 4.0000000000e-05
753, 9.6000000000e-04, 4.8000000000e-04, 4.0000000000e-05
754, 1.0000000000e-03, 4.8000000000e-04, 4.0000000000e-05
755, 0.0000000000e+00, 5.2000000000e-04, 4.0000000000e-05
756, 4.0000000000e-05, 5.2000000000e-04, 4.0000000000e-05
757, 8.0000000000e-05, 5.2000000000e-04, 4.0000000000e-05
758, 1.2000000000e-04, 5.2000000000e-04, 4.0000000000e-05
759, 1.6000000000e-04, 5.2000000000e-04, 4.0000000000e-05
760, 2.0000000000e-04, 5.2000000000e-04, 4.0000000000e-05
761, 2.4000000000e-04, 5.2000000000e-04, 4.0000000000e-05
762, 2.8000000000e-04, 5.2000000000e-04, 4.0000000000e-05
763, 3.2000000000e-04, 5.2000000000e-04, 4.0000000000e-05
764, 3.6000000000e-04, 5.2000000000e-04, 4.0000000000e-05
765, 4.0000000000e-04, 5.2000000000e-04, 4.0000000000e-05
766, 4.4000000000e-04, 5.2000000000e-04, 4.0000000000e-05
767, 4.8000000000e-04, 5.2000000000e-04, 4.0000000000e-05
768, 5.2000000000e-04, 5.2000000000e-04, 4.0000000000e-05
769, 5.6000000000e-04, 5.2000000000e-04, 4.0000000000e-05
770, 6.0000000000e-04, 5.2000000000e-04, 4.0000000000e-05
771, 6.4000000000e-04, 5.2000000000e-04, 4.0000000000e-05
772, 6.8000000000e-04, 5.2000000000e-04, 4.0000000000e-05
773, 7.2000000000e-04, 5.2000000000e-04, 4.0000000000e-05
774, 7.6000000000e-04, 5.2000000000e-04, 4.0000000000e-05
775, 8.0000000000e-04, 5.2000000000e-04, 4.0000000000e-05
776, 8.4000000000e-04, 5.2000000000e-04, 4.0000000000e-05
777, 8.8000000000e-04, 5.2000000000e-04, 4.0000000000e-05
778, 9.2000000000e-04, 5.2000000000e-04, 4.0000000000e-05
779, 9.6000000000e-04, 5.2000000000e-04, 4.0000000000e-05
780, 1.0000000000e-03, 5.2000000000e-04, 4.0000000000e-05
781, 0.0000000000e+00, 5.6000000000e-04, 4.0000000000e-05
782, 4.0000000000e-05, 5.6000000000e-04, 4.0000000000e-05
783, 8.0000000000e-05, 5.6000000000e-04, 4.0000000000e-05
784, 1.2000000000e-04, 5.6000000000e-04, 4.0000000000e-05
785, 1.6000000000e-04, 5.6000000000e-04, 4.0000000000e-05
786, 2.0000000000e-04, 5.6000000000e-04, 4.0000000000e-05
787, 2.4000000000e-04, 5.6000000000e-04, 4.0000000000e-05
788, 2.8000000000e-04, 5.6000000000e-04, 4.0000000000e-05
789, 3.2000000000e-04, 5.6000000000e-04, 4.0000000000e-05
790, 3.6000000000e-04, 5.6000000000e-04, 4.0000000000e-05
791, 4.0000000000e-04, 5.6000000000e-04, 4.0000000000e-05
792, 4.4000000000e-04, 5.6000000000e-04, 4.0000000000e-05
793, 4.8000000000e-04, 5.6000000000e-04, 4.0000000000e-05
794, 5.2000000000e-04, 5.6000000000e-04, 4.0000000000e-05
795, 5.6000000000e-04, 5.6000000000e-04, 4.0000000000e-05
796, 6.0000000000e-04, 5.6000000000e-04, 4.0000000000e-05
797, 6.4000000000e-04, 5.6000000000e-04, 4.0000000000e-05
798, 6.8000000000e-04, 5.6000000000e-04, 4.0000000000e-05
799, 7.2000000000e-04, 5.6000000000e-04, 4.0000000000e-05
800, 7.6000000000e-04, 5.6000000000e-04, 4.0000000000e-05
801, 8.0000000000e-04, 5.6000000000e-04, 4.0000000000e-05
802, 8.4000000000e-04, 5.6000000000e-04, 4.0000000000e-05
803, 8.8000000000e-04, 5.6000000000e-04, 4.0000000000e-05
804, 9.2000000000e-04, 5.6000000000e-04, 4.0000000000e-05
805, 9.6000000000e-04, 5.6000000000e-04, 4.0000000000e-05
806, 1.0000000000e-03, 5.6000000000e-04, 4.0000000000e-05
807, 0.0000000000e+00, 6.0000000000e-04, 4.0000000000e-05
808, 4.0000000000e-05, 6.0000000000e-04, 4.0000000000e-05
809, 8.0000000000e-05, 6.0000000000e-04, 4.0000000000e-05
810, 1.2000000000e-04, 6.0000000000e-04, 4.0000000000e-05
811, 1.6000000000e-04, 6.0000000000e-04, 4.0000000000e-05
812, 2.0000000000e-04, 6.0000000000e-04, 4.0000000000e-05
813, 2.4000000000e-04, 6.0000000000e-04, 4.0000000000e-05
814, 2.8000000000e-04, 6.0000000000e-04, 4.0000000000e-05
815, 3.2000000000e-04, 6.0000000000e-04, 4.0000000000e-05
816, 3.6000000000e-04, 6.0000000000e-04, 4.0000000000e-05
817, 4.0000000000e-04, 6.0000000000e-04, 4.0000000000e-05
818, 4.4000000000e-04, 6.0000000000e-04, 4.0000000000e-05
819, 4.8000000000e-04, 6.0000000000e-04, 4.0000000000e-05
820, 5.2000000000e-04, 6.0000000000e-04, 4.0000000000e-05
821, 5.6000000000e-04, 6.0000000000e-04, 4.0000000000e-05
822, 6.0000000000e-04, 6.0000000000e-04, 4.0000000000e-05
823, 6.4000000000e-04, 6.0000000000e-04, 4.0000000000e-05
824, 6.8000000000e-04, 6.0000000000e-04, 4.0000000000e-05
825, 7.2000000000e-04, 6.0000000000e-04, 4.0000000000e-05
826, 7.6000000000e-04, 6.0000000000e-04, 4.0000000000e-05
827, 8.0000000000e-04, 6.0000000000e-04, 4.0000000000e-05
828, 8.4000000000e-04, 6.0000000000e-04, 4.0000000000e-05
829, 8.8000000000e-04, 6.0000000000e-04, 4.0000000000e-05
830, 9.2000000000e-04, 6.0000000000e-04, 4.0000000000e-05
831, 9.6000000000e-04, 6.0000000000e-04, 4.0000000000e-05
832, 1.0000000000e-03, 6.0000000000e-04, 4.0000000000e-05
833, 0.0000000000e+00, 0.0000000000e+00, 8.0000000000e-05
834, 4.0000000000e-05, 0.0000000000e+00, 8.0000000000e-05
835, 8.0000000000e-05, 0.0000000000e+00, 8.0000000000e-05
836, 1.2000000000e-04, 0.0000000000e+00, 8.0000000000e-05
837, 1.6000000000e-04, 0.0000000000e+00, 8.0000000000e-05
838, 2.0000000000e-04, 0.0000000000e+00, 8.0000000000e-05
839, 2.4000000000e-04, 0.0000000000e+00, 8.0000000000e-05
840, 2.8000000000e-04, 0.0000000000e+00, 8.0000000000e-05
841, 3.2000000000e-04, 0.0000000000e+00, 8.0000000000e-05
842, 3.6000000000e-04, 0.0000000000e+00, 8.0000000000e-05
843, 4.0000000000e-04, 0.0000000000e+00, 8.0000000000e-05
844, 4.4000000000e-04, 0.0000000000e+00, 8.0000000000e-05
845, 4.8000000000e-04, 0.0000000000e+00, 8.0000000000e-05
846, 5.2000000000e-04, 0.0000000000e+00, 8.0000000000e-05
847, 5.6000000000e-04, 0.0000000000e+00, 8.0000000000e-05
848, 6.0000000000e-04, 0.0000000000e+00, 8.0000000000e-05
849, 6.4000000000e-04, 0.0000000000e+00, 8.0000000000e-05
850, 6.8000000000e-04, 0.0000000000e+00, 8.0000000000e-05
851, 7.2000000000e-04, 0.0000000000e+00, 8.0000000000e-05
852, 7.6000000000e-04, 0.0000000000e+00, 8.0000000000e-05
853, 8.0000000000e-04, 0.0000000000e+00, 8.0000000000e-05
854, 8.4000000000e-04, 0.0000000000e+00, 8.0000000000e-05
855, 8.8000000000e-04, 0.0000000000e+00, 8.0000000000e-05
856, 9.2000000000e-04, 0.0000000000e+00, 8.0000000000e-05
857, 9.6000000000e-04, 0.0000000000e+00, 8.0000000000e-05
858, 1.0000000000e-03, 0.0000000000e+00, 8.0000000000e-05
859, 0.0000000000e+00, 4.0000000000e-05, 8.0000000000e-05
860, 4.0000000000e-05, 4.0000000000e-05, 8.0000000000e-05
861, 8.0000000000e-05, 4.0000000000e-05, 8.0000000000e-05
862, 1.2000000000e-04, 4.0000000000e-05, 8.0000000000e-05
863, 1.6000000000e-04, 4.0000000000e-05, 8.0000000000e-05
864, 2.0000000000e-04, 4.0000000000e-05, 8.0000000000e-05
865, 2.4000000000e-04, 4.0000000000e-05, 8.0000000000e-05
866, 2.8000000000e-04, 4.0000000000e-05, 8.0000000000e-05
867, 3.2000000000e-04, 4.0000000000e-05, 8.0000000000e-05
868, 3.6000000000e-04, 4.0000000000e-05, 8.0000000000e-05
869, 4.0000000000e-04, 4.0000000000e-05, 8.0000000000e-05
870, 4.4000000000e-04, 4.0000000000e-05, 8.0000000000e-05
871, 4.8000000000e-04, 4.0000000000e-05, 8.0000000000e-05
872, 5.2000000000e-04, 4.0000000000e-05, 8.0000000000e-05
873, 5.6000000000e-04, 4.0000000000e-05, 8.0000000000e-05
874, 6.0000000000e-04, 4.0000000000e-05, 8.0000000000e-05
875, 6.4000000000e-04, 4.0000000000e-05, 8.0000000000e-05
876, 6.8000000000e-04, 4.0000000000e-05, 8.0000000000e-05
877, 7.2000000000e-04, 4.0000000000e-05, 8.0000000000e-05
878, 7.6000000000e-04, 4.0000000000e-05, 8.0000000000e-05
879, 8.0000000000e-04, 4.0000000000e-05, 8.0000000000e-05
880, 8.4000000000e-04, 4.0000000000e-05, 8.0000000000e-05
881, 8.8000000000e-04, 4.0000000000e-05, 8.0000000000e-05
882, 9.2000000000e-04, 4.0000000000e-05, 8.0000000000e-05
883, 9.6000000000e-04, 4.0000000000e-05, 8.0000000000e-05
884, 1.0000000000e-03, 4.0000000000e-05, 8.0000000000e-05
885, 0.0000000000e+00, 8.0000000000e-05, 8.0000000000e-05
886, 4.0000000000e-05, 8.0000000000e-05, 8.0000000000e-05
887, 8.0000000000e-05, 8.0000000000e-05, 8.0000000000e-05
888, 1.2000000000e-04, 8.0000000000e-05, 8.0000000000e-05
889, 1.6000000000e-04, 8.0000000000e-05, 8.0000000000e-05
890, 2.0000000000e-04, 8.0000000000e-05, 8.0000000000e-05
891, 2.4000000000e-04, 8.0000000000e-05, 8.0000000000e-05
892, 2.8000000000e-04, 8.0000000000e-05, 8.0000000000e-05
893, 3.2000000000e-04, 8.0000000000e-05, 8.0000000000e-05
894, 3.6000000000e-04, 8.0000000000e-05, 8.0000000000e-05
895, 4.0000000000e-04, 8.0000000000e-05, 8.0000000000e-05
896, 4.4000000000e-04, 8.0000000000e-05, 8.0000000000e-05
897, 4.8000000000e-04, 8.0000000000e-05, 8.0000000000e-05
898, 5.2000000000e-04, 8.0000000000e-05, 8.0000000000e-05
899, 5.6000000000e-04, 8.0000000000e-05, 8.0000000000e-05
900, 6.0000000000e-04, 8.0000000000e-05, 8.0000000000e-05
901, 6.4000000000e-04, 8.0000000000e-05, 8.0000000000e-05
902, 6.8000000000e-04, 8.0000000000e-05, 8.0000000000e-05
903, 7.2000000000e-04, 8.0000000000e-05, 8.0000000000e-05
904, 7.6000000000e-04, 8.0000000000e-05, 8.0000000000e-05
905, 8.0000000000e-04, 8.0000000000e-05, 8.0000000000e-05
906, 8.4000000000e-04, 8.0000000000e-05, 8.0000000000e-05
907, 8.8000000000e-04, 8.0000000000e-05, 8.0000000000e-05
908, 9.2000000000e-04, 8.0000000000e-05, 8.0000000000e-05
909, 9.6000000000e-04, 8.0000000000e-05, 8.0000000000e-05
910, 1.0000000000e-03, 8.0000000000e-05, 8.0000000000e-05
911, 0.0000000000e+00, 1.2000000000e-04, 8.0000000000e-05
912, 4.0000000000e-05, 1.2000000000e-04, 8.0000000000e-05
913, 8.0000000000e-05, 1.2000000000e-04, 8.0000000000e-05
914, 1.2000000000e-04, 1.2000000000e-04, 8.0000000000e-05
915, 1.6000000000e-04, 1.2000000000e-04, 8.0000000000e-05
916, 2.0000000000e-04, 1.2000000000e-04, 8.0000000000e-05
917, 2.4000000000e-04, 1.2000000000e-04, 8.0000000000e-05
918, 2.8000000000e-04, 1.2000000000e-04, 8.0000000000e-05
919, 3.2000000000e-04, 1.2000000000e-04, 8.0000000000e-05
920, 3.6000000000e-04, 1.2000000000e-04, 8.0000000000e-05
921, 4.0000000000e-04, 1.2000000000e-04, 8.0000000000e-05
922, 4.4000000000e-04, 1.2000000000e-04, 8.0000000000e-05
923, 4.8000000000e-04, 1.2000000000e-04, 8.0000000000e-05
924, 5.2000000000e-04, 1.2000000000e-04, 8.0000000000e-05
925, 5.6000000000e-04, 1.2000000000e-04, 8.0000000000e-05
926, 6.0000000000e-04, 1.2000000000e-04, 8.0000000000e-05
927, 6.4000000000e-04, 1.2000000000e-04, 8.0000000000e-05
928, 6.8000000000e-04, 1.2000000000e-04, 8.0000000000e-05
929, 7.2000000000e-04, 1.2000000000e-04, 8.0000000000e-05
930, 7.6000000000e-04, 1.2000000000e-04, 8.0000000000e-05
931, 8.0000000000e-04, 1.2000000000e-04, 8.0000000000e-05
932, 8.4000000000e-04, 1.2000000000e-04, 8.0000000000e-05
933, 8.8000000000e-04, 1.2000000000e-04, 8.0000000000e-05
934, 9.2000000000e-04, 1.2000000000e-04, 8.0000000000e-05
935, 9.6000000000e-04, 1.2000000000e-04, 8.0000000000e-05
936, 1.0000000000e-03, 1.2000000000e-04, 8.0000000000e-05
937, 0.0000000000e+00, 1.6000000000e-04, 8.0000000000e-05
938, 4.0000000000e-05, 1.6000000000e-04, 8.0000000000e-05
939, 8.0000000000e-05, 1.6000000000e-04, 8.0000000000e-05
940, 1.2000000000e-04, 1.6000000000e-04, 8.0000000000e-05
941, 1.6000000000e-04, 1.6000000000e-04, 8.0000000000e-05
942, 2.0000000000e-04, 1.6000000000e-04, 8.0000000000e-05
943, 2.4000000000e-04, 1.6000000000e-04, 8.0000000000e-05
944, 2.8000000000e-04, 1.6000000000e-04, 8.0000000000e-05
945, 3.2000000000e-04, 1.6000000000e-04, 8.0000000000e-05
946, 3.6000000000e-04, 1.6000000000e-04, 8.0000000000e-05
947, 4.0000000000e-04, 1.6000000000e-04, 8.0000000000e-05
948, 4.4000000000e-04, 1.6000000000e-04, 8.0000000000e-05
949, 4.8000000000e-04, 1.6000000000e-04, 8.0000000000e-05
950, 5.2000000000e-04, 1.6000000000e-04, 8.0000000000e-05
951, 5.6000000000e-04, 1.6000000000e-04, 8.0000000000e-05
952, 6.0000000000e-04, 1.6000000000e-04, 8.0000000000e-05
953, 6.4000000000e-04, 1.6000000000e-04, 8.0000000000e-05
954, 6.8000000000e-04, 1.6000000000e-04, 8.0000000000e-05
955, 7.2000000000e-04, 1.6000000000e-04, 8.0000000000e-05
956, 7.6000000000e-04, 1.6000000000e-04, 8.0000000000e-05
957, 8.0000000000e-04, 1.6000000000e-04, 8.0000000000e-05
958, 8.4000000000e-04, 1.6000000000e-04, 8.0000000000e-05
959, 8.8000000000e-04, 1.6000000000e-04, 8.0000000000e-05
960, 9.2000000000e-04, 1.6000000000e-04, 8.0000000000e-05
961, 9.6000000000e-04, 1.6000000000e-04, 8.0000000000e-05
962, 1.0000000000e-03, 1.6000000000e-04, 8.0000000000e-05
963, 0.0000000000e+00, 2.0000000000e-04, 8.0000000000e-05
964, 4.0000000000e-05, 2.0000000000e-04, 8.0000000000e-05
965, 8.0000000000e-05, 2.0000000000e-04, 8.0000000000e-05
966, 1.2000000000e-04, 2.0000000000e-04, 8.0000000000e-05
967, 1.6000000000e-04, 2.0000000000e-04, 8.0000000000e-05
968, 2.0000000000e-04, 2.0000000000e-04, 8.0000000000e-05
969, 2.4000000000e-04, 2.0000000000e-04, 8.0000000000e-05
970, 2.8000000000e-04, 2.0000000000e-04, 8.0000000000e-05
971, 3.2000000000e-04, 2.0000000000e-04, 8.0000000000e-05
972, 3.6000000000e-04, 2.0000000000e-04, 8.0000000000e-05
973, 4.0000000000e-04, 2.0000000000e-04, 8.0000000000e-05
974, 4.4000000000e-04, 2.0000000000e-04, 8.0000000000e-05
975, 4.8000000000e-04, 2.0000000000e-04, 8.0000000000e-05
976, 5.2000000000e-04, 2.0000000000e-04, 8.0000000000e-05
977, 5.6000000000e-04, 2.0000000000e-04, 8.0000000000e-05
978, 6.0000000000e-04, 2.0000000000e-04, 8.0000000000e-05
979, 6.4000000000e-04, 2.0000000000e-04, 8.0000000000e-05
980, 6.8000000000e-04, 2.0000000000e-04, 8.0000000000e-05
981, 7.2000000000e-04, 2.0000000000e-04, 8.0000000000e-05
982, 7.6000000000e-04, 2.0000000000e-04, 8.0000000000e-05
983, 8.0000000000e-04, 2.0000000000e-04, 8.0000000000e-05
984, 8.4000000000e-04, 2.0000000000e-04, 8.0000000000e-05
985, 8.8000000000e-04, 2.0000000000e-04, 8.0000000000e-05
986, 9.2000000000e-04, 2.0000000000e-04, 8.0000000000e-05
987, 9.6000000000e-04, 2.0000000000e-04, 8.0000000000e-05
988, 1.0000000000e-03, 2.0000000000e-04, 8.0000000000e-05
989, 0.0000000000e+00, 2.4000000000e-04, 8.0000000000e-05
990, 4.0000000000e-05, 2.4000000000e-04, 8.0000000000e-05
991, 8.0000000000e-05, 2.4000000000e-04, 8.0000000000e-05
992, 1.2000000000e-04, 2.4000000000e-04, 8.0000000000e-05
993, 1.6000000000e-04, 2.4000000000e-04, 8.0000000000e-05
994, 2.0000000000e-04, 2.4000000000e-04, 8.0000000000e-05
995, 2.4000000000e-04, 2.4000000000e-04, 8.0000000000e-05
996, 2.8000000000e-04, 2.4000000000e-04, 8.0000000000e-05
997, 3.2000000000e-04, 2.4000000000e-04, 8.0000000000e-05
998, 3.6000000000e-04, 2.4000000000e-04, 8.0000000000e-05
999, 4.0000000000e-04, 2.4000000000e-04, 8.0000000000e-05
1000, 4.4000000000e-04, 2.4000000000e-04, 8.0000000000e-05
1001, 4.8000000000e-04, 2.4000000000e-04, 8.0000000000e-05
1002, 5.2000000000e-04, 2.4000000000e-04, 8.0000000000e-05
1003, 5.6000000000e-04, 2.4000000000e-04, 8.0000000000e-05
1004, 6.0000000000e-04, 2.4000000000e-04, 8.0000000000e-05
1005, 6.4000000000e-04, 2.4000000000e-04, 8.0000000000e-05
1006, 6.8000000000e-04, 2.4000000000e-04, 8.0000000000e-05
1007, 7.2000000000e-04, 2.4000000000e-04, 8.0000000000e-05
1008, 7.6000000000e-04, 2.4000000000e-04, 8.0000000000e-05
1009, 8.0000000000e-04, 2.4000000000e-04, 8.0000000000e-05
1010, 8.4000000000e-04, 2.4000000000e-04, 8.0000000000e-05
1011, 8.8000000000e-04, 2.4000000000e-04, 8.0000000000e-05
1012, 9.2000000000e-04, 2.4000000000e-04, 8.0000000000e-05
1013, 9.6000000000e-04, 2.4000000000e-04, 8.0000000000e-05
1014, 1.0000000000e-03, 2.4000000000e-04, 8.0000000000e-05
1015, 0.0000000000e+00, 2.8000000000e-04, 8.0000000000e-05
1016, 4.0000000000e-05, 2.8000000000e-04, 8.0000000000e-05
1017, 8.0000000000e-05, 2.8000000000e-04, 8.0000000000e-05
1018, 1.2000000000e-04, 2.8000000000e-04, 8.0000000000e-05
1019, 1.6000000000e-04, 2.8000000000e-04, 8.0000000000e-05
1020, 2.0000000000e-04, 2.8000000000e-04, 8.0000000000e-05
1021, 2.4000000000e-04, 2.8000000000e-04, 8.0000000000e-05
1022, 2.8000000000e-04, 2.8000000000e-04, 8.0000000000e-05
1023, 3.2000000000e-04, 2.8000000000e-04, 8.0000000000e-05
1024, 3.6000000000e-04, 2.8000000000e-04, 8.0000000000e-05
1025, 4.0000000000e-04, 2.8000000000e-04, 8.0000000000e-05
1026, 4.4000000000e-04, 2.8000000000e-04, 8.0000000000e-05
1027, 4.8000000000e-04, 2.8000000000e-04, 8.0000000000e-05
1028, 5.2000000000e-04, 2.8000000000e-04, 8.0000000000e-05
1029, 5.6000000000e-04, 2.8000000000e-04, 8.0000000000e-05
1030, 6.0000000000e-04, 2.8000000000e-04, 8.0000000000e-05
1031, 6.4000000000e-04, 2.8000000000e-04, 8.0000000000e-05
1032, 6.8000000000e-04, 2.8000000000e-04, 8.0000000000e-05
1033, 7.2000000000e-04, 2.8000000000e-04, 8.0000000000e-05
1034, 7.6000000000e-04, 2.8000000000e-04, 8.0000000000e-05
1035, 8.0000000000e-04, 2.8000000000e-04, 8.0000000000e-05
1036, 8.4000000000e-04, 2.8000000000e-04, 8.0000000000e-05
1037, 8.8000000000e-04, 2.8000000000e-04, 8.0000000000e-05
1038, 9.2000000000e-04, 2.8000000000e-04, 8.0000000000e-05
1039, 9.6000000000e-04, 2.8000000000e-04, 8.0000000000e-05
1040, 1.0000000000e-03, 2.8000000000e-04, 8.0000000000e-05
1041, 0.0000000000e+00, 3.2000000000e-04, 8.0000000000e-05
1042, 4.0000000000e-05, 3.2000000000e-04, 8.0000000000e-05
1043, 8.0000000000e-05, 3.2000000000e-04, 8.0000000000e-05
1044, 1.2000000000e-04, 3.2000000000e-04, 8.0000000000e-05
1045, 1.6000000000e-04, 3.2000000000e-04, 8.0000000000e-05
1046, 2.0000000000e-04, 3.2000000000e-04, 8.0000000000e-05
1047, 2.4000000000e-04, 3.2000000000e-04, 8.0000000000e-05
1048, 2.8000000000e-04, 3.2000000000e-04, 8.0000000000e-05
1049, 3.2000000000e-04, 3.2000000000e-04, 8.0000000000e-05
1050, 3.6000000000e-04, 3.2000000000e-04, 8.0000000000e-05
1051, 4.0000000000e-04, 3.2000000000e-04, 8.0000000000e-05
1052, 4.4000000000e-04, 3.2000000000e-04, 8.0000000000e-05
1053, 4.8000000000e-04, 3.2000000000e-04, 8.0000000000e-05
1054, 5.2000000000e-04, 3.2000000000e-04, 8.0000000000e-05
1055, 5.6000000000e-04, 3.2000000000e-04, 8.0000000000e-05
1056, 6.0000000000e-04, 3.2000000000e-04, 8.0000000000e-05
1057, 6.4000000000e-04, 3.2000000000e-04, 8.0000000000e-05
1058, 6.8000000000e-04, 3.2000000000e-04, 8.0000000000e-05
1059, 7.2000000000e-04, 3.2000000000e-04, 8.0000000000e-05
1060, 7.6000000000e-04, 3.2000000000e-04, 8.0000000000e-05
1061, 8.0000000000e-04, 3.2000000000e-04, 8.0000000000e-05
1062, 8.4000000000e-04, 3.2000000000e-04, 8.0000000000e-05
1063, 8.8000000000e-04, 3.2000000000e-04, 8.0000000000e-05
1064, 9.2000000000e-04, 3.2000000000e-04, 8.0000000000e-05
1065, 9.6000000000e-04, 3.2000000000e-04, 8.0000000000e-05
1066, 1.0000000000e-03, 3.2000000000e-04, 8.0000000000e-05
1067, 0.0000000000e+00, 3.6000000000e-04, 8.0000000000e-05
1068, 4.0000000000e-05, 3.6000000000e-04, 8.0000000000e-05
1069, 8.0000000000e-05, 3.6000000000e-04, 8.0000000000e-05
1070, 1.2000000000e-04, 3.6000000000e-04, 8.0000000000e-05
1071, 1.6000000000e-04, 3.6000000000e-04, 8.0000000000e-05
1072, 2.0000000000e-04, 3.6000000000e-04, 8.0000000000e-05
1073, 2.4000000000e-04, 3.6000000000e-04, 8.0000000000e-05
1074, 2.8000000000e-04, 3.6000000000e-04, 8.0000000000e-05
1075, 3.2000000000e-04, 3.6000000000e-04, 8.0000000000e-05
1076, 3.6000000000e-04, 3.6000000000e-04, 8.0000000000e-05
1077, 4.0000000000e-04, 3.6000000000e-04, 8.0000000000e-05
1078, 4.4000000000e-04, 3.6000000000e-04, 8.0000000000e-05
1079, 4.8000000000e-04, 3.6000000000e-04, 8.0000000000e-05
1080, 5.2000000000e-04, 3.6000000000e-04, 8.0000000000e-05
1081, 5.6000000000e-04, 3.6000000000e-04, 8.0000000000e-05
1082, 6.0000000000e-04, 3.6000000000e-04, 8.0000000000e-05
1083, 6.4000000000e-04, 3.6000000000e-04, 8.0000000000e-05
1084, 6.8000000000e-04, 3.6000000000e-04, 8.0000000000e-05
1085, 7.2000000000e-04, 3.6000000000e-04, 8.0000000000e-05
1086, 7.6000000000e-04, 3.6000000000e-04, 8.0000000000e-05
1087, 8.0000000000e-04, 3.6000000000e-04, 8.0000000000e-05
1088, 8.4000000000e-04, 3.6000000000e-04, 8.0000000000e-05
1089, 8.8000000000e-04, 3.6000000000e-04, 8.0000000000e-05
1090, 9.2000000000e-04, 3.6000000000e-04, 8.0000000000e-05
1091, 9.6000000000e-04, 3.6000000000e-04, 8.0000000000e-05
1092, 1.0000000000e-03, 3.6000000000e-04, 8.0000000000e-05
1093, 0.0000000000e+00, 4.0000000000e-04, 8.0000000000e-05
1094, 4.0000000000e-05, 4.0000000000e-04, 8.0000000000e-05
1095, 8.0000000000e-05, 4.0000000000e-04, 8.0000000000e-05
1096, 1.2000000000e-04, 4.0000000000e-04, 8.0000000000e-05
1097, 1.6000000000e-04, 4.0000000000e-04, 8.0000000000e-05
1098, 2.0000000000e-04, 4.0000000000e-04, 8.0000000000e-05
1099, 2.4000000000e-04, 4.0000000000e-04, 8.0000000000e-05
1100, 2.8000000000e-04, 4.0000000000e-04, 8.0000000000e-05
1101, 3.2000000000e-04, 4.0000000000e-04, 8.0000000000e-05
1102, 3.6000000000e-04, 4.0000000000e-04, 8.0000000000e-05
1103, 4.0000000000e-04, 4.0000000000e-04, 8.0000000000e-05
1104, 4.4000000000e-04, 4.0000000000e-04, 8.0000000000e-05
1105, 4.8000000000e-04, 4.0000000000e-04, 8.0000000000e-05
1106, 5.2000000000e-04, 4.0000000000e-04, 8.0000000000e-05
1107, 5.6000000000e-04, 4.0000000000e-04, 8.0000000000e-05
1108, 6.0000000000e-04, 4.0000000000e-04, 8.0000000000e-05
1109, 6.4000000000e-04, 4.0000000000e-04, 8.0000000000e-05
1110, 6.8000000000e-04, 4.0000000000e-04, 8.0000000000e-05
1111, 7.2000000000e-04, 4.0000000000e-04, 8.0000000000e-05
1112, 7.6000000000e-04, 4.0000000000e-04, 8.0000000000e-05
1113, 8.0000000000e-04, 4.0000000000e-04, 8.0000000000e-05
1114, 8.4000000000e-04, 4.0000000000e-04, 8.0000000000e-05
1115, 8.8000000000e-04, 4.0000000000e-04, 8.0000000000e-05
1116, 9.2000000000e-04, 4.0000000000e-04, 8.0000000000e-05
1117, 9.6000000000e-04, 4.0000000000e-04, 8.0000000000e-05
1118, 1.0000000000e-03, 4.0000000000e-04, 8.0000000000e-05
1119, 0.0000000000e+00, 4.4000000000e-04, 8.0000000000e-05
1120, 4.0000000000e-05, 4.4000000000e-04, 8.0000000000e-05
1121, 8.0000000000e-05, 4.4000000000e-04, 8.0000000000e-05
1122, 1.2000000000e-04, 4.4000000000e-04, 8.0000000000e-05
1123, 1.6000000000e-04, 4.4000000000e-04, 8.0000000000e-05
1124, 2.0000000000e-04, 4.4000000000e-04, 8.0000000000e-05
1125, 2.4000000000e-04, 4.4000000000e-04, 8.0000000000e-05
1126, 2.8000000000e-04, 4.4000000000e-04, 8.0000000000e-05
1127, 3.2000000000e-04, 4.4000000000e-04, 8.0000000000e-05
1128, 3.6000000000e-04, 4.4000000000e-04, 8.0000000000e-05
1129, 4.0000000000e-04, 4.4000000000e-04, 8.0000000000e-05
1130, 4.4000000000e-04, 4.4000000000e-04, 8.0000000000e-05
1131, 4.8000000000e-04, 4.4000000000e-04, 8.0000000000e-05
1132, 5.2000000000e-04, 4.4000000000e-04, 8.0000000000e-05
1133, 5.6000000000e-04, 4.4000000000e-04, 8.0000000000e-05
1134, 6.0000000000e-04, 4.4000000000e-04, 8.0000000000e-05
1135, 6.4000000000e-04, 4.4000000000e-04, 8.0000000000e-05
1136, 6.8000000000e-04, 4.4000000000e-04, 8.0000000000e-05
1137, 7.2000000000e-04, 4.4000000000e-04, 8.0000000000e-05
1138, 7.6000000000e-04, 4.4000000000e-04, 8.0000000000e-05
1139, 8.0000000000e-04, 4.4000000000e-04, 8.0000000000e-05
1140, 8.4000000000e-04, 4.4000000000e-04, 8.0000000000e-05
1141, 8.8000000000e-04, 4.4000000000e-04, 8.0000000000e-05
1142, 9.2000000000e-04, 4.4000000000e-04, 8.0000000000e-05
1143, 9.6000000000e-04, 4.4000000000e-04, 8.0000000000e-05
1144, 1.0000000000e-03, 4.4000000000e-04, 8.0000000000e-05
1145, 0.0000000000e+00, 4.8000000000e-04, 8.0000000000e-05
1146, 4.0000000000e-05, 4.8000000000e-04, 8.0000000000e-05
1147, 8.0000000000e-05, 4.8000000000e-04, 8.0000000000e-05
1148, 1.2000000000e-04, 4.8000000000e-04, 8.0000000000e-05
1149, 1.6000000000e-04, 4.8000000000e-04, 8.0000000000e-05
1150, 2.0000000000e-04, 4.8000000000e-04, 8.0000000000e-05
1151, 2.4000000000e-04, 4.8000000000e-04, 8.0000000000e-05
1152, 2.8000000000e-04, 4.8000000000e-04, 8.0000000000e-05
1153, 3.2000000000e-04, 4.8000000000e-04, 8.0000000000e-05
1154, 3.6000000000e-04, 4.8000000000e-04, 8.0000000000e-05
1155, 4.0000000000e-04, 4.8000000000e-04, 8.0000000000e-05
1156, 4.4000000000e-04, 4.8000000000e-04, 8.0000000000e-05
1157, 4.8000000000e-04, 4.8000000000e-04, 8.0000000000e-05
1158, 5.2000000000e-04, 4.8000000000e-04, 8.0000000000e-05
1159, 5.6000000000e-04, 4.8000000000e-04, 8.0000000000e-05
1160, 6.0000000000e-04, 4.8000000000e-04, 8.0000000000e-05
1161, 6.4000000000e-04, 4.8000000000e-04, 8.0000000000e-05
1162, 6.8000000000e-04, 4.8000000000e-04, 8.0000000000e-05
1163, 7.2000000000e-04, 4.8000000000e-04, 8.0000000000e-05
1164, 7.6000000000e-04, 4.8000000000e-04, 8.0000000000e-05
1165, 8.0000000000e-04, 4.8000000000e-04, 8.0000000000e-05
1166, 8.4000000000e-04, 4.8000000000e-04, 8.0000000000e-05
1167, 8.8000000000e-04, 4.8000000000e-04, 8.0000000000e-05
1168, 9.2000000000e-04, 4.8000000000e-04, 8.0000000000e-05
1169, 9.6000000000e-04, 4.8000000000e-04, 8.0000000000e-05
1170, 1.0000000000e-03, 4.8000000000e-04, 8.0000000000e-05
1171, 0.0000000000e+00, 5.2000000000e-04, 8.0000000000e-05
1172, 4.0000000000e-05, 5.2000000000e-04, 8.0000000000e-05
1173, 8.0000000000e-05, 5.2000000000e-04, 8.0000000000e-05
1174, 1.2000000000e-04, 5.2000000000e-04, 8.0000000000e-05
1175, 1.6000000000e-04, 5.2000000000e-04, 8.0000000000e-05
1176, 2.0000000000e-04, 5.2000000000e-04, 8.0000000000e-05
1177, 2.4000000000e-04, 5.2000000000e-04, 8.0000000000e-05
1178, 2.8000000000e-04, 5.2000000000e-04, 8.0000000000e-05
1179, 3.2000000000e-04, 5.2000000000e-04, 8.0000000000e-05
1180, 3.6000000000e-04, 5.2000000000e-04, 8.0000000000e-05
1181, 4.0000000000e-04, 5.2000000000e-04, 8.0000000000e-05
1182, 4.4000000000e-04, 5.2000000000e-04, 8.0000000000e-05
1183, 4.8000000000e-04, 5.2000000000e-04, 8.0000000000e-05
1184, 5.2000000000e-04, 5.2000000000e-04, 8.0000000000e-05
1185, 5.6000000000e-04, 5.2000000000e-04, 8.0000000000e-05
1186, 6.0000000000e-04, 5.2000000000e-04, 8.0000000000e-05
1187, 6.4000000000e-04, 5.2000000000e-04, 8.0000000000e-05
1188, 6.8000000000e-04, 5.2000000000e-04, 8.0000000000e-05
1189, 7.2000000000e-04, 5.2000000000e-04, 8.0000000000e-05
1190, 7.6000000000e-04, 5.2000000000e-04, 8.0000000000e-05
1191, 8.0000000000e-04, 5.2000000000e-04, 8.0000000000e-05
1192, 8.4000000000e-04, 5.2000000000e-04, 8.0000000000e-05
1193, 8.8000000000e-04, 5.2000000000e-04, 8.0000000000e-05
1194, 9.2000000000e-04, 5.2000000000e-04, 8.0000000000e-05
1195, 9.6000000000e-04, 5.2000000000e-04, 8.0000000000e-05
1196, 1.0000000000e-03, 5.2000000000e-04, 8.0000000000e-05
1197, 0.0000000000e+00, 5.6000000000e-04, 8.0000000000e-05
1198, 4.0000000000e-05, 5.6000000000e-04, 8.0000000000e-05
1199, 8.0000000000e-05, 5.6000000000e-04, 8.0000000000e-05
1200, 1.2000000000e-04, 5.6000000000e-04, 8.0000000000e-05
1201, 1.6000000000e-04, 5.6000000000e-04, 8.0000000000e-05
1202, 2.0000000000e-04, 5.6000000000e-04, 8.0000000000e-05
1203, 2.4000000000e-04, 5.6000000000e-04, 8.0000000000e-05
1204, 2.8000000000e-04, 5.6000000000e-04, 8.0000000000e-05
1205, 3.2000000000e-04, 5.6000000000e-04, 8.0000000000e-05
1206, 3.6000000000e-04, 5.6000000000e-04, 8.0000000000e-05
1207, 4.0000000000e-04, 5.6000000000e-04, 8.0000000000e-05
1208, 4.4000000000e-04, 5.6000000000e-04, 8.0000000000e-05
1209, 4.8000000000e-04, 5.6000000000e-04, 8.0000000000e-05
1210, 5.2000000000e-04, 5.6000000000e-04, 8.0000000000e-05
1211, 5.6000000000e-04, 5.6000000000e-04, 8.0000000000e-05
1212, 6.0000000000e-04, 5.6000000000e-04, 8.0000000000e-05
1213, 6.4000000000e-04, 5.6000000000e-04, 8.0000000000e-05
1214, 6.8000000000e-04, 5.6000000000e-04, 8.0000000000e-05
1215, 7.2000000000e-04, 5.6000000000e-04, 8.0000000000e-05
1216, 7.6000000000e-04, 5.6000000000e-04, 8.0000000000e-05
1217, 8.0000000000e-04, 5.6000000000e-04, 8.0000000000e-05
1218, 8.4000000000e-04, 5.6000000000e-04, 8.0000000000e-05
1219, 8.8000000000e-04, 5.6000000000e-04, 8.0000000000e-05
1220, 9.2000000000e-04, 5.6000000000e-04, 8.0000000000e-05
1221, 9.6000000000e-04, 5.6000000000e-04, 8.0000000000e-05
1222, 1.0000000000e-03, 5.6000000000e-04, 8.0000000000e-05
1223, 0.0000000000e+00, 6.0000000000e-04, 8.0000000000e-05
1224, 4.0000000000e-05, 6.0000000000e-04, 8.0000000000e-05
1225, 8.0000000000e-05, 6.0000000000e-04, 8.0000000000e-05
1226, 1.2000000000e-04, 6.0000000000e-04, 8.0000000000e-05
1227, 1.6000000000e-04, 6.0000000000e-04, 8.0000000000e-05
1228, 2.0000000000e-04, 6.0000000000e-04, 8.0000000000e-05
1229, 2.4000000000e-04, 6.0000000000e-04, 8.0000000000e-05
1230, 2.8000000000e-04, 6.0000000000e-04, 8.0000000000e-05
1231, 3.2000000000e-04, 6.0000000000e-04, 8.0000000000e-05
1232, 3.6000000000e-04, 6.0000000000e-04, 8.0000000000e-05
1233, 4.0000000000e-04, 6.0000000000e-04, 8.0000000000e-05
1234, 4.4000000000e-04, 6.0000000000e-04, 8.0000000000e-05
1235, 4.8000000000e-04, 6.0000000000e-04, 8.0000000000e-05
1236, 5.2000000000e-04, 6.0000000000e-04, 8.0000000000e-05
1237, 5.6000000000e-04, 6.0000000000e-04, 8.0000000000e-05
1238, 6.0000000000e-04, 6.0000000000e-04, 8.0000000000e-05
1239, 6.4000000000e-04, 6.0000000000e-04, 8.0000000000e-05
1240, 6.8000000000e-04, 6.0000000000e-04, 8.0000000000e-05
1241, 7.2000000000e-04, 6.0000000000e-04, 8.0000000000e-05
1242, 7.6000000000e-04, 6.0000000000e-04, 8.0000000000e-05
1243, 8.0000000000e-04, 6.0000000000e-04, 8.0000000000e-05
1244, 8.4000000000e-04, 6.0000000000e-04, 8.0000000000e-05
1245, 8.8000000000e-04, 6.0000000000e-04, 8.0000000000e-05
1246, 9.2000000000e-04, 6.0000000000e-04, 8.0000000000e-05
1247, 9.6000000000e-04, 6.0000000000e-04, 8.0000000000e-05
1248, 1.0000000000e-03, 6.0000000000e-04, 8.0000000000e-05
1249, 0.0000000000e+00, 0.0000000000e+00, 1.2000000000e-04
1250, 4.0000000000e-05, 0.0000000000e+00, 1.2000000000e-04
1251, 8.0000000000e-05, 0.0000000000e+00, 1.2000000000e-04
1252, 1.2000000000e-04, 0.0000000000e+00, 1.2000000000e-04
1253, 1.6000000000e-04, 0.0000000000e+00, 1.2000000000e-04
1254, 2.0000000000e-04, 0.0000000000e+00, 1.2000000000e-04
1255, 2.4000000000e-04, 0.0000000000e+00, 1.2000000000e-04
1256, 2.8000000000e-04, 0.0000000000e+00, 1.2000000000e-04
1257, 3.2000000000e-04, 0.0000000000e+00, 1.2000000000e-04
1258, 3.6000000000e-04, 0.0000000000e+00, 1.2000000000e-04
1259, 4.0000000000e-04, 0.0000000000e+00, 1.2000000000e-04
1260, 4.4000000000e-04, 0.0000000000e+00, 1.2000000000e-04
1261, 4.8000000000e-04, 0.0000000000e+00, 1.2000000000e-04
1262, 5.2000000000e-04, 0.0000000000e+00, 1.2000000000e-04
1263, 5.6000000000e-04, 0.0000000000e+00, 1.2000000000e-04
1264, 6.0000000000e-04, 0.0000000000e+00, 1.2000000000e-04
1265, 6.4000000000e-04, 0.0000000000e+00, 1.2000000000e-04
1266, 6.8000000000e-04, 0.0000000000e+00, 1.2000000000e-04
1267, 7.2000000000e-04, 0.0000000000e+00, 1.2000000000e-04
1268, 7.6000000000e-04, 0.0000000000e+00, 1.2000000000e-04
1269, 8.0000000000e-04, 0.0000000000e+00, 1.2000000000e-04
1270, 8.4000000000e-04, 0.0000000000e+00, 1.2000000000e-04
1271, 8.8000000000e-04, 0.0000000000e+00, 1.2000000000e-04
1272, 9.2000000000e-04, 0.0000000000e+00, 1.2000000000e-04
1273, 9.6000000000e-04, 0.0000000000e+00, 1.2000000000e-04
1274, 1.0000000000e-03, 0.0000000000e+00, 1.2000000000e-04
1275, 0.0000000000e+00, 4.0000000000e-05, 1.2000000000e-04
1276, 4.0000000000e-05, 4.0000000000e-05, 1.2000000000e-04
1277, 8.0000000000e-05, 4.0000000000e-05, 1.2000000000e-04
1278, 1.2000000000e-04, 4.0000000000e-05, 1.2000000000e-04
1279, 1.6000000000e-04, 4.0000000000e-05, 1.2000000000e-04
1280, 2.0000000000e-04, 4.0000000000e-05, 1.2000000000e-04
1281, 2.4000000000e-04, 4.0000000000e-05, 1.2000000000e-04
1282, 2.8000000000e-04, 4.0000000000e-05, 1.2000000000e-04
1283, 3.2000000000e-04, 4.0000000000e-05, 1.2000000000e-04
1284, 3.6000000000e-04, 4.0000000000e-05, 1.2000000000e-04
1285, 4.0000000000e-04, 4.0000000000e-05, 1.2000000000e-04
1286, 4.4000000000e-04, 4.0000000000e-05, 1.2000000000e-04
1287, 4.8000000000e-04, 4.0000000000e-05, 1.2000000000e-04
1288, 5.2000000000e-04, 4.0000000000e-05, 1.2000000000e-04
1289, 5.6000000000e-04, 4.0000000000e-05, 1.2000000000e-04
1290, 6.0000000000e-04, 4.0000000000e-05, 1.2000000000e-04
1291, 6.4000000000e-04, 4.0000000000e-05, 1.2000000000e-04
1292, 6.8000000000e-04, 4.0000000000e-05, 1.2000000000e-04
1293, 7.2000000000e-04, 4.0000000000e-05, 1.2000000000e-04
1294, 7.6000000000e-04, 4.0000000000e-05, 1.2000000000e-04
1295, 8.0000000000e-04, 4.0000000000e-05, 1.2000000000e-04
1296, 8.4000000000e-04, 4.0000000000e-05, 1.2000000000e-04
1297, 8.8000000000e-04, 4.0000000000e-05, 1.2000000000e-04
1298, 9.2000000000e-04, 4.0000000000e-05, 1.2000000000e-04
1299, 9.6000000000e-04, 4.0000000000e-05, 1.2000000000e-04
1300, 1.0000000000e-03, 4.0000000000e-05, 1.2000000000e-04
1301, 0.0000000000e+00, 8.0000000000e-05, 1.2000000000e-04
1302, 4.0000000000e-05, 8.0000000000e-05, 1.2000000000e-04
1303, 8.0000000000e-05, 8.0000000000e-05, 1.2000000000e-04
1304, 1.2000000000e-04, 8.0000000000e-05, 1.2000000000e-04
1305, 1.6000000000e-04, 8.0000000000e-05, 1.2000000000e-04
1306, 2.0000000000e-04, 8.0000000000e-05, 1.2000000000e-04
1307, 2.4000000000e-04, 8.0000000000e-05, 1.2000000000e-04
1308, 2.8000000000e-04, 8.0000000000e-05, 1.2000000000e-04
1309, 3.2000000000e-04, 8.0000000000e-05, 1.2000000000e-04
1310, 3.6000000000e-04, 8.0000000000e-05, 1.2000000000e-04
1311, 4.0000000000e-04, 8.0000000000e-05, 1.2000000000e-04
1312, 4.4000000000e-04, 8.0000000000e-05, 1.2000000000e-04
1313, 4.8000000000e-04, 8.0000000000e-05, 1.2000000000e-04
1314, 5.2000000000e-04, 8.0000000000e-05, 1.2000000000e-04
1315, 5.6000000000e-04, 8.0000000000e-05, 1.2000000000e-04
1316, 6.0000000000e-04, 8.0000000000e-05, 1.2000000000e-04
1317, 6.4000000000e-04, 8.0000000000e-05, 1.2000000000e-04
1318, 6.8000000000e-04, 8.0000000000e-05, 1.2000000000e-04
1319, 7.2000000000e-04, 8.0000000000e-05, 1.2000000000e-04
1320, 7.6000000000e-04, 8.0000000000e-05, 1.2000000000e-04
1321, 8.0000000000e-04, 8.0000000000e-05, 1.2000000000e-04
1322, 8.4000000000e-04, 8.0000000000e-05, 1.2000000000e-04
1323, 8.8000000000e-04, 8.0000000000e-05, 1.2000000000e-04
1324, 9.2000000000e-04, 8.0000000000e-05, 1.2000000000e-04
1325, 9.6000000000e-04, 8.0000000000e-05, 1.2000000000e-04
1326, 1.0000000000e-03, 8.0000000000e-05, 1.2000000000e-04
1327, 0.0000000000e+00, 1.2000000000e-04, 1.2000000000e-04
1328, 4.0000000000e-05, 1.2000000000e-04, 1.2000000000e-04
1329, 8.0000000000e-05, 1.2000000000e-04, 1.2000000000e-04
1330, 1.2000000000e-04, 1.2000000000e-04, 1.2000000000e-04
1331, 1.6000000000e-04, 1.2000000000e-04, 1.2000000000e-04
1332, 2.0000000000e-04, 1.2000000000e-04, 1.2000000000e-04
1333, 2.4000000000e-04, 1.2000000000e-04, 1.2000000000e-04
1334, 2.8000000000e-04, 1.2000000000e-04, 1.2000000000e-04
1335, 3.2000000000e-04, 1.2000000000e-04, 1.2000000000e-04
1336, 3.6000000000e-04, 1.2000000000e-04, 1.2000000000e-04
1337, 4.0000000000e-04, 1.2000000000e-04, 1.2000000000e-04
1338, 4.4000000000e-04, 1.2000000000e-04, 1.2000000000e-04
1339, 4.8000000000e-04, 1.2000000000e-04, 1.2000000000e-04
1340, 5.2000000000e-04, 1.2000000000e-04, 1.2000000000e-04
1341, 5.6000000000e-04, 1.2000000000e-04, 1.2000000000e-04
1342, 6.0000000000e-04, 1.2000000000e-04, 1.2000000000e-04
1343, 6.4000000000e-04, 1.2000000000e-04, 1.2000000000e-04
1344, 6.8000000000e-04, 1.2000000000e-04, 1.2000000000e-04
1345, 7.2000000000e-04, 1.2000000000e-04, 1.2000000000e-04
1346, 7.6000000000e-04, 1.2000000000e-04, 1.2000000000e-04
1347, 8.0000000000e-04, 1.2000000000e-04, 1.2000000000e-04
1348, 8.4000000000e-04, 1.2000000000e-04, 1.2000000000e-04
1349, 8.8000000000e-04, 1.2000000000e-04, 1.2000000000e-04
1350, 9.2000000000e-04, 1.2000000000e-04, 1.2000000000e-04
1351, 9.6000000000e-04, 1.2000000000e-04, 1.2000000000e-04
1352, 1.0000000000e-03, 1.2000000000e-04, 1.2000000000e-04
1353, 0.0000000000e+00, 1.6000000000e-04, 1.2000000000e-04
1354, 4.0000000000e-05, 1.6000000000e-04, 1.2000000000e-04
1355, 8.0000000000e-05, 1.6000000000e-04, 1.2000000000e-04
1356, 1.2000000000e-04, 1.6000000000e-04, 1.2000000000e-04
1357, 1.6000000000e-04, 1.6000000000e-04, 1.2000000000e-04
1358, 2.0000000000e-04, 1.6000000000e-04, 1.2000000000e-04
1359, 2.4000000000e-04, 1.6000000000e-04, 1.2000000000e-04
1360, 2.8000000000e-04, 1.6000000000e-04, 1.2000000000e-04
1361, 3.2000000000e-04, 1.6000000000e-04, 1.2000000000e-04
1362, 3.6000000000e-04, 1.6000000000e-04, 1.2000000000e-04
1363, 4.0000000000e-04, 1.6000000000e-04, 1.2000000000e-04
1364, 4.4000000000e-04, 1.6000000000e-04, 1.2000000000e-04
1365, 4.8000000000e-04, 1.6000000000e-04, 1.2000000000e-04
1366, 5.2000000000e-04, 1.6000000000e-04, 1.2000000000e-04
1367, 5.6000000000e-04, 1.6000000000e-04, 1.2000000000e-04
1368, 6.0000000000e-04, 1.6000000000e-04, 1.2000000000e-04
1369, 6.4000000000e-04, 1.6000000000e-04, 1.2000000000e-04
1370, 6.8000000000e-04, 1.6000000000e-04, 1.2000000000e-04
1371, 7.2000000000e-04, 1.6000000000e-04, 1.2000000000e-04
1372, 7.6000000000e-04, 1.6000000000e-04, 1.2000000000e-04
1373, 8.0000000000e-04, 1.6000000000e-04, 1.2000000000e-04
1374, 8.4000000000e-04, 1.6000000000e-04, 1.2000000000e-04
1375, 8.8000000000e-04, 1.6000000000e-04, 1.2000000000e-04
1376, 9.2000000000e-04, 1.6000000000e-04, 1.2000000000e-04
1377, 9.6000000000e-04, 1.6000000000e-04, 1.2000000000e-04
1378, 1.0000000000e-03, 1.6000000000e-04, 1.2000000000e-04
1379, 0.0000000000e+00, 2.0000000000e-04, 1.2000000000e-04
1380, 4.0000000000e-05, 2.0000000000e-04, 1.2000000000e-04
1381, 8.0000000000e-05, 2.0000000000e-04, 1.2000000000e-04
1382, 1.2000000000e-04, 2.0000000000e-04, 1.2000000000e-04
1383, 1.6000000000e-04, 2.0000000000e-04, 1.2000000000e-04
1384, 2.0000000000e-04, 2.0000000000e-04, 1.2000000000e-04
1385, 2.4000000000e-04, 2.0000000000e-04, 1.2000000000e-04
1386, 2.8000000000e-04, 2.0000000000e-04, 1.2000000000e-04
1387, 3.2000000000e-04, 2.0000000000e-04, 1.2000000000e-04
1388, 3.6000000000e-04, 2.0000000000e-04, 1.2000000000e-04
1389, 4.0000000000e-04, 2.0000000000e-04, 1.2000000000e-04
1390, 4.4000000000e-04, 2.0000000000e-04, 1.2000000000e-04
1391, 4.8000000000e-04, 2.0000000000e-04, 1.2000000000e-04
1392, 5.2000000000e-04, 2.0000000000e-04, 1.2000000000e-04
1393, 5.6000000000e-04, 2.0000000000e-04, 1.2000000000e-04
1394, 6.0000000000e-04, 2.0000000000e-04, 1.2000000000e-04
1395, 6.4000000000e-04, 2.0000000000e-04, 1.2000000000e-04
1396, 6.8000000000e-04, 2.0000000000e-04, 1.2000000000e-04
1397, 7.2000000000e-04, 2.0000000000e-04, 1.2000000000e-04
1398, 7.6000000000e-04, 2.0000000000e-04, 1.2000000000e-04
1399, 8.0000000000e-04, 2.0000000000e-04, 1.2000000000e-04
1400, 8.4000000000e-04, 2.0000000000e-04, 1.2000000000e-04
1401, 8.8000000000e-04, 2.0000000000e-04, 1.2000000000e-04
1402, 9.2000000000e-04, 2.0000000000e-04, 1.2000000000e-04
1403, 9.6000000000e-04, 2.0000000000e-04, 1.2000000000e-04
1404, 1.0000000000e-03, 2.0000000000e-04, 1.2000000000e-04
1405, 0.0000000000e+00, 2.4000000000e-04, 1.2000000000e-04
1406, 4.0000000000e-05, 2.4000000000e-04, 1.2000000000e-04
1407, 8.0000000000e-05, 2.4000000000e-04, 1.2000000000e-04
1408, 1.2000000000e-04, 2.4000000000e-04, 1.2000000000e-04
1409, 1.6000000000e-04, 2.4000000000e-04, 1.2000000000e-04
1410, 2.0000000000e-04, 2.4000000000e-04, 1.2000000000e-04
1411, 2.4000000000e-04, 2.4000000000e-04, 1.2000000000e-04
1412, 2.8000000000e-04, 2.4000000000e-04, 1.2000000000e-04
1413, 3.2000000000e-04, 2.4000000000e-04, 1.2000000000e-04
1414, 3.6000000000e-04, 2.4000000000e-04, 1.2000000000e-04
1415, 4.0000000000e-04, 2.4000000000e-04, 1.2000000000e-04
1416, 4.4000000000e-04, 2.4000000000e-04, 1.2000000000e-04
1417, 4.8000000000e-04, 2.4000000000e-04, 1.2000000000e-04
1418, 5.2000000000e-04, 2.4000000000e-04, 1.2000000000e-04
1419, 5.6000000000e-04, 2.4000000000e-04, 1.2000000000e-04
1420, 6.0000000000e-04, 2.4000000000e-04, 1.2000000000e-04
1421, 6.4000000000e-04, 2.4000000000e-04, 1.2000000000e-04
1422, 6.8000000000e-04, 2.4000000000e-04, 1.2000000000e-04
1423, 7.2000000000e-04, 2.4000000000e-04, 1.2000000000e-04
1424, 7.6000000000e-04, 2.4000000000e-04, 1.2000000000e-04
1425, 8.0000000000e-04, 2.4000000000e-04, 1.2000000000e-04
1426, 8.4000000000e-04, 2.4000000000e-04, 1.2000000000e-04
1427, 8.8000000000e-04, 2.4000000000e-04, 1.2000000000e-04
1428, 9.2000000000e-04, 2.4000000000e-04, 1.2000000000e-04
1429, 9.6000000000e-04, 2.4000000000e-04, 1.2000000000e-04
1430, 1.0000000000e-03, 2.4000000000e-04, 1.2000000000e-04
1431, 0.0000000000e+00, 2.8000000000e-04, 1.2000000000e-04
1432, 4.0000000000e-05, 2.8000000000e-04, 1.2000000000e-04
1433, 8.0000000000e-05, 2.8000000000e-04, 1.2000000000e-04
1434, 1.2000000000e-04, 2.8000000000e-04, 1.2000000000e-04
1435, 1.6000000000e-04, 2.8000000000e-04, 1.2000000000e-04
1436, 2.0000000000e-04, 2.8000000000e-04, 1.2000000000e-04
1437, 2.4000000000e-04, 2.8000000000e-04, 1.2000000000e-04
1438, 2.8000000000e-04, 2.8000000000e-04, 1.2000000000e-04
1439, 3.2000000000e-04, 2.8000000000e-04, 1.2000000000e-04
1440, 3.6000000000e-04, 2.8000000000e-04, 1.2000000000e-04
1441, 4.0000000000e-04, 2.8000000000e-04, 1.2000000000e-04
1442, 4.4000000000e-04, 2.8000000000e-04, 1.2000000000e-04
1443, 4.8000000000e-04, 2.8000000000e-04, 1.2000000000e-04
1444, 5.2000000000e-04, 2.8000000000e-04, 1.2000000000e-04
1445, 5.6000000000e-04, 2.8000000000e-04, 1.2000000000e-04
1446, 6.0000000000e-04, 2.8000000000e-04, 1.2000000000e-04
1447, 6.4000000000e-04, 2.8000000000e-04, 1.2000000000e-04
1448, 6.8000000000e-04, 2.8000000000e-04, 1.2000000000e-04
1449, 7.2000000000e-04, 2.8000000000e-04, 1.2000000000e-04
1450, 7.6000000000e-04, 2.8000000000e-04, 1.2000000000e-04
1451, 8.0000000000e-04, 2.8000000000e-04, 1.2000000000e-04
1452, 8.4000000000e-04, 2.8000000000e-04, 1.2000000000e-04
1453, 8.8000000000e-04, 2.8000000000e-04, 1.2000000000e-04
1454, 9.2000000000e-04, 2.8000000000e-04, 1.2000000000e-04
1455, 9.6000000000e-04, 2.8000000000e-04, 1.2000000000e-04
1456, 1.0000000000e-03, 2.8000000000e-04, 1.2000000000e-04
1457, 0.0000000000e+00, 3.2000000000e-04, 1.2000000000e-04
1458, 4.0000000000e-05, 3.2000000000e-04, 1.2000000000e-04
1459, 8.0000000000e-05, 3.2000000000e-04, 1.2000000000e-04
1460, 1.2000000000e-04, 3.2000000000e-04, 1.2000000000e-04
1461, 1.6000000000e-04, 3.2000000000e-04, 1.2000000000e-04
1462, 2.0000000000e-04, 3.2000000000e-04, 1.2000000000e-04
1463, 2.4000000000e-04, 3.2000000000e-04, 1.2000000000e-04
1464, 2.8000000000e-04, 3.2000000000e-04, 1.2000000000e-04
1465, 3.2000000000e-04, 3.2000000000e-04, 1.2000000000e-04
1466, 3.6000000000e-04, 3.2000000000e-04, 1.2000000000e-04
1467, 4.0000000000e-04, 3.2000000000e-04, 1.2000000000e-04
1468, 4.4000000000e-04, 3.2000000000e-04, 1.2000000000e-04
1469, 4.8000000000e-04, 3.2000000000e-04, 1.2000000000e-04
1470, 5.2000000000e-04, 3.2000000000e-04, 1.2000000000e-04
1471, 5.6000000000e-04, 3.2000000000e-04, 1.2000000000e-04
1472, 6.0000000000e-04, 3.2000000000e-04, 1.2000000000e-04
1473, 6.4000000000e-04, 3.2000000000e-04, 1.2000000000e-04
1474, 6.8000000000e-04, 3.2000000000e-04, 1.2000000000e-04
1475, 7.2000000000e-04, 3.2000000000e-04, 1.2000000000e-04
1476, 7.6000000000e-04, 3.2000000000e-04, 1.2000000000e-04
1477, 8.0000000000e-04, 3.2000000000e-04, 1.2000000000e-04
1478, 8.4000000000e-04, 3.2000000000e-04, 1.2000000000e-04
1479, 8.8000000000e-04, 3.2000000000e-04, 1.2000000000e-04
1480, 9.2000000000e-04, 3.2000000000e-04, 1.2000000000e-04
1481, 9.6000000000e-04, 3.2000000000e-04, 1.2000000000e-04
1482, 1.0000000000e-03, 3.2000000000e-04, 1.2000000000e-04
1483, 0.0000000000e+00, 3.6000000000e-04, 1.2000000000e-04
1484, 4.0000000000e-05, 3.6000000000e-04, 1.2000000000e-04
1485, 8.0000000000e-05, 3.6000000000e-04, 1.2000000000e-04
1486, 1.2000000000e-04, 3.6000000000e-04, 1.2000000000e-04
1487, 1.6000000000e-04, 3.6000000000e-04, 1.2000000000e-04
1488, 2.0000000000e-04, 3.6000000000e-04, 1.2000000000e-04
1489, 2.4000000000e-04, 3.6000000000e-04, 1.2000000000e-04
1490, 2.8000000000e-04, 3.6000000000e-04, 1.2000000000e-04
1491, 3.2000000000e-04, 3.6000000000e-04, 1.2000000000e-04
1492, 3.6000000000e-04, 3.6000000000e-04, 1.2000000000e-04
1493, 4.0000000000e-04, 3.6000000000e-04, 1.2000000000e-04
1494, 4.4000000000e-04, 3.6000000000e-04, 1.2000000000e-04
1495, 4.8000000000e-04, 3.6000000000e-04, 1.2000000000e-04
1496, 5.2000000000e-04, 3.6000000000e-04, 1.2000000000e-04
1497, 5.6000000000e-04, 3.6000000000e-04, 1.2000000000e-04
1498, 6.0000000000e-04, 3.6000000000e-04, 1.2000000000e-04
1499, 6.4000000000e-04, 3.6000000000e-04, 1.2000000000e-04
1500, 6.8000000000e-04, 3.6000000000e-04, 1.2000000000e-04
1501, 7.2000000000e-04, 3.6000000000e-04, 1.2000000000e-04
1502, 7.6000000000e-04, 3.6000000000e-04, 1.2000000000e-04
1503, 8.0000000000e-04, 3.6000000000e-04, 1.2000000000e-04
1504, 8.4000000000e-04, 3.6000000000e-04, 1.2000000000e-04
1505, 8.8000000000e-04, 3.6000000000e-04, 1.2000000000e-04
1506, 9.2000000000e-04, 3.6000000000e-04, 1.2000000000e-04
1507, 9.6000000000e-04, 3.6000000000e-04, 1.2000000000e-04
1508, 1.0000000000e-03, 3.6000000000e-04, 1.2000000000e-04
1509, 0.0000000000e+00, 4.0000000000e-04, 1.2000000000e-04
1510, 4.0000000000e-05, 4.0000000000e-04, 1.2000000000e-04
1511, 8.0000000000e-05, 4.0000000000e-04, 1.2000000000e-04
1512, 1.2000000000e-04, 4.0000000000e-04, 1.2000000000e-04
1513, 1.6000000000e-04, 4.0000000000e-04, 1.2000000000e-04
1514, 2.0000000000e-04, 4.0000000000e-04, 1.2000000000e-04
1515, 2.4000000000e-04, 4.0000000000e-04, 1.2000000000e-04
1516, 2.8000000000e-04, 4.0000000000e-04, 1.2000000000e-04
1517, 3.2000000000e-04, 4.0000000000e-04, 1.2000000000e-04
1518, 3.6000000000e-04, 4.0000000000e-04, 1.2000000000e-04
1519, 4.0000000000e-04, 4.0000000000e-04, 1.2000000000e-04
1520, 4.4000000000e-04, 4.0000000000e-04, 1.2000000000e-04
1521, 4.8000000000e-04, 4.0000000000e-04, 1.2000000000e-04
1522, 5.2000000000e-04, 4.0000000000e-04, 1.2000000000e-04
1523, 5.6000000000e-04, 4.0000000000e-04, 1.2000000000e-04
1524, 6.0000000000e-04, 4.0000000000e-04, 1.2000000000e-04
1525, 6.4000000000e-04, 4.0000000000e-04, 1.2000000000e-04
1526, 6.8000000000e-04, 4.0000000000e-04, 1.2000000000e-04
1527, 7.2000000000e-04, 4.0000000000e-04, 1.2000000000e-04
1528, 7.6000000000e-04, 4.0000000000e-04, 1.2000000000e-04
1529, 8.0000000000e-04, 4.0000000000e-04, 1.2000000000e-04
1530, 8.4000000000e-04, 4.0000000000e-04, 1.2000000000e-04
1531, 8.8000000000e-04, 4.0000000000e-04, 1.2000000000e-04
1532, 9.2000000000e-04, 4.0000000000e-04, 1.2000000000e-04
1533, 9.6000000000e-04, 4.0000000000e-04, 1.2000000000e-04
1534, 1.0000000000e-03, 4.0000000000e-04, 1.2000000000e-04
1535, 0.0000000000e+00, 4.4000000000e-04, 1.2000000000e-04
1536, 4.0000000000e-05, 4.4000000000e-04, 1.2000000000e-04
1537, 8.0000000000e-05, 4.4000000000e-04, 1.2000000000e-04
1538, 1.2000000000e-04, 4.4000000000e-04, 1.2000000000e-04
1539, 1.6000000000e-04, 4.4000000000e-04, 1.2000000000e-04
1540, 2.0000000000e-04, 4.4000000000e-04, 1.2000000000e-04
1541, 2.4000000000e-04, 4.4000000000e-04, 1.2000000000e-04
1542, 2.8000000000e-04, 4.4000000000e-04, 1.2000000000e-04
1543, 3.2000000000e-04, 4.4000000000e-04, 1.2000000000e-04
1544, 3.6000000000e-04, 4.4000000000e-04, 1.2000000000e-04
1545, 4.0000000000e-04, 4.4000000000e-04, 1.2000000000e-04
1546, 4.4000000000e-04, 4.4000000000e-04, 1.2000000000e-04
1547, 4.8000000000e-04, 4.4000000000e-04, 1.2000000000e-04
1548, 5.2000000000e-04, 4.4000000000e-04, 1.2000000000e-04
1549, 5.6000000000e-04, 4.4000000000e-04, 1.2000000000e-04
1550, 6.0000000000e-04, 4.4000000000e-04, 1.2000000000e-04
1551, 6.4000000000e-04, 4.4000000000e-04, 1.2000000000e-04
1552, 6.8000000000e-04, 4.4000000000e-04, 1.2000000000e-04
1553, 7.2000000000e-04, 4.4000000000e-04, 1.2000000000e-04
1554, 7.6000000000e-04, 4.4000000000e-04, 1.2000000000e-04
1555, 8.0000000000e-04, 4.4000000000e-04, 1.2000000000e-04
1556, 8.4000000000e-04, 4.4000000000e-04, 1.2000000000e-04
1557, 8.8000000000e-04, 4.4000000000e-04, 1.2000000000e-04
1558, 9.2000000000e-04, 4.4000000000e-04, 1.2000000000e-04
1559, 9.6000000000e-04, 4.4000000000e-04, 1.2000000000e-04
1560, 1.0000000000e-03, 4.4000000000e-04, 1.2000000000e-04
1561, 0.0000000000e+00, 4.8000000000e-04, 1.2000000000e-04
1562, 4.0000000000e-05, 4.8000000000e-04, 1.2000000000e-04
1563, 8.0000000000e-05, 4.8000000000e-04, 1.2000000000e-04
1564, 1.2000000000e-04, 4.8000000000e-04, 1.2000000000e-04
1565, 1.6000000000e-04, 4.8000000000e-04, 1.2000000000e-04
1566, 2.0000000000e-04, 4.8000000000e-04, 1.2000000000e-04
1567, 2.4000000000e-04, 4.8000000000e-04, 1.2000000000e-04
1568, 2.8000000000e-04, 4.8000000000e-04, 1.2000000000e-04
1569, 3.2000000000e-04, 4.8000000000e-04, 1.2000000000e-04
1570, 3.6000000000e-04, 4.8000000000e-04, 1.2000000000e-04
1571, 4.0000000000e-04, 4.8000000000e-04, 1.2000000000e-04
1572, 4.4000000000e-04, 4.8000000000e-04, 1.2000000000e-04
1573, 4.8000000000e-04, 4.8000000000e-04, 1.2000000000e-04
1574, 5.2000000000e-04, 4.8000000000e-04, 1.2000000000e-04
1575, 5.6000000000e-04, 4.8000000000e-04, 1.2000000000e-04
1576, 6.0000000000e-04, 4.8000000000e-04, 1.2000000000e-04
1577, 6.4000000000e-04, 4.8000000000e-04, 1.2000000000e-04
1578, 6.8000000000e-04, 4.8000000000e-04, 1.2000000000e-04
1579, 7.2000000000e-04, 4.8000000000e-04, 1.2000000000e-04
1580, 7.6000000000e-04, 4.8000000000e-04, 1.2000000000e-04
1581, 8.0000000000e-04, 4.8000000000e-04, 1.2000000000e-04
1582, 8.4000000000e-04, 4.8000000000e-04, 1.2000000000e-04
1583, 8.8000000000e-04, 4.8000000000e-04, 1.2000000000e-04
1584, 9.2000000000e-04, 4.8000000000e-04, 1.2000000000e-04
1585, 9.6000000000e-04, 4.8000000000e-04, 1.2000000000e-04
1586, 1.0000000000e-03, 4.8000000000e-04, 1.2000000000e-04
1587, 0.0000000000e+00, 5.2000000000e-04, 1.2000000000e-04
1588, 4.0000000000e-05, 5.2000000000e-04, 1.2000000000e-04
1589, 8.0000000000e-05, 5.2000000000e-04, 1.2000000000e-04
1590, 1.2000000000e-04, 5.2000000000e-04, 1.2000000000e-04
1591, 1.6000000000e-04, 5.2000000000e-04, 1.2000000000e-04
1592, 2.0000000000e-04, 5.2000000000e-04, 1.2000000000e-04
1593, 2.4000000000e-04, 5.2000000000e-04, 1.2000000000e-04
1594, 2.8000000000e-04, 5.2000000000e-04, 1.2000000000e-04
1595, 3.2000000000e-04, 5.2000000000e-04, 1.2000000000e-04
1596, 3.6000000000e-04, 5.2000000000e-04, 1.2000000000e-04
1597, 4.0000000000e-04, 5.2000000000e-04, 1.2000000000e-04
1598, 4.4000000000e-04, 5.2000000000e-04, 1.2000000000e-04
1599, 4.8000000000e-04, 5.2000000000e-04, 1.2000000000e-04
1600, 5.2000000000e-04, 5.2000000000e-04, 1.2000000000e-04
1601, 5.6000000000e-04, 5.2000000000e-04, 1.2000000000e-04
1602, 6.0000000000e-04, 5.2000000000e-04, 1.2000000000e-04
1603, 6.4000000000e-04, 5.2000000000e-04, 1.2000000000e-04
1604, 6.8000000000e-04, 5.2000000000e-04, 1.2000000000e-04
1605, 7.2000000000e-04, 5.2000000000e-04, 1.2000000000e-04
1606, 7.6000000000e-04, 5.2000000000e-04, 1.2000000000e-04
1607, 8.0000000000e-04, 5.2000000000e-04, 1.2000000000e-04
1608, 8.4000000000e-04, 5.2000000000e-04, 1.2000000000e-04
1609, 8.8000000000e-04, 5.2000000000e-04, 1.2000000000e-04
1610, 9.2000000000e-04, 5.2000000000e-04, 1.2000000000e-04
1611, 9.6000000000e-04, 5.2000000000e-04, 1.2000000000e-04
1612, 1.0000000000e-03, 5.2000000000e-04, 1.2000000000e-04
1613, 0.0000000000e+00, 5.6000000000e-04, 1.2000000000e-04
1614, 4.0000000000e-05, 5.6000000000e-04, 1.2000000000e-04
1615, 8.0000000000e-05, 5.6000000000e-04, 1.2000000000e-04
1616, 1.2000000000e-04, 5.6000000000e-04, 1.2000000000e-04
1617, 1.6000000000e-04, 5.6000000000e-04, 1.2000000000e-04
1618, 2.0000000000e-04, 5.6000000000e-04, 1.2000000000e-04
1619, 2.4000000000e-04, 5.6000000000e-04, 1.2000000000e-04
1620, 2.8000000000e-04, 5.6000000000e-04, 1.2000000000e-04
1621, 3.2000000000e-04, 5.6000000000e-04, 1.2000000000e-04
1622, 3.6000000000e-04, 5.6000000000e-04, 1.2000000000e-04
1623, 4.0000000000e-04, 5.6000000000e-04, 1.2000000000e-04
1624, 4.4000000000e-04, 5.6000000000e-04, 1.2000000000e-04
1625, 4.8000000000e-04, 5.6000000000e-04, 1.2000000000e-04
1626, 5.2000000000e-04, 5.6000000000e-04, 1.2000000000e-04
1627, 5.6000000000e-04, 5.6000000000e-04, 1.2000000000e-04
1628, 6.0000000000e-04, 5.6000000000e-04, 1.2000000000e-04
1629, 6.4000000000e-04, 5.6000000000e-04, 1.2000000000e-04
1630, 6.8000000000e-04, 5.6000000000e-04, 1.2000000000e-04
1631, 7.2000000000e-04, 5.6000000000e-04, 1.2000000000e-04
1632, 7.6000000000e-04, 5.6000000000e-04, 1.2000000000e-04
1633, 8.0000000000e-04, 5.6000000000e-04, 1.2000000000e-04
1634, 8.4000000000e-04, 5.6000000000e-04, 1.2000000000e-04
1635, 8.8000000000e-04, 5.6000000000e-04, 1.2000000000e-04
1636, 9.2000000000e-04, 5.6000000000e-04, 1.2000000000e-04
1637, 9.6000000000e-04, 5.6000000000e-04, 1.2000000000e-04
1638, 1.0000000000e-03, 5.6000000000e-04, 1.2000000000e-04
1639, 0.0000000000e+00, 6.0000000000e-04, 1.2000000000e-04
1640, 4.0000000000e-05, 6.0000000000e-04, 1.2000000000e-04
1641, 8.0000000000e-05, 6.0000000000e-04, 1.2000000000e-04
1642, 1.2000000000e-04, 6.0000000000e-04, 1.2000000000e-04
1643, 1.6000000000e-04, 6.0000000000e-04, 1.2000000000e-04
1644, 2.0000000000e-04, 6.0000000000e-04, 1.2000000000e-04
1645, 2.4000000000e-04, 6.0000000000e-04, 1.2000000000e-04
1646, 2.8000000000e-04, 6.0000000000e-04, 1.2000000000e-04
1647, 3.2000000000e-04, 6.0000000000e-04, 1.2000000000e-04
1648, 3.6000000000e-04, 6.0000000000e-04, 1.2000000000e-04
1649, 4.0000000000e-04, 6.0000000000e-04, 1.2000000000e-04
1650, 4.4000000000e-04, 6.0000000000e-04, 1.2000000000e-04
1651, 4.8000000000e-04, 6.0000000000e-04, 1.2000000000e-04
1652, 5.2000000000e-04, 6.0000000000e-04, 1.2000000000e-04
1653, 5.6000000000e-04, 6.0000000000e-04, 1.2000000000e-04
1654, 6.0000000000e-04, 6.0000000000e-04, 1.2000000000e-04
1655, 6.4000000000e-04, 6.0000000000e-04, 1.2000000000e-04
1656, 6.8000000000e-04, 6.0000000000e-04, 1.2000000000e-04
1657, 7.2000000000e-04, 6.0000000000e-04, 1.2000000000e-04
1658, 7.6000000000e-04, 6.0000000000e-04, 1.2000000000e-04
1659, 8.0000000000e-04, 6.0000000000e-04, 1.2000000000e-04
1660, 8.4000000000e-04, 6.0000000000e-04, 1.2000000000e-04
1661, 8.8000000000e-04, 6.0000000000e-04, 1.2000000000e-04
1662, 9.2000000000e-04, 6.0000000000e-04, 1.2000000000e-04
1663, 9.6000000000e-04, 6.0000000000e-04, 1.2000000000e-04
1664, 1.0000000000e-03, 6.0000000000e-04, 1.2000000000e-04
1665, 0.0000000000e+00, 0.0000000000e+00, 1.6000000000e-04
1666, 4.0000000000e-05, 0.0000000000e+00, 1.6000000000e-04
1667, 8.0000000000e-05, 0.0000000000e+00, 1.6000000000e-04
1668, 1.2000000000e-04, 0.0000000000e+00, 1.6000000000e-04
1669, 1.6000000000e-04, 0.0000000000e+00, 1.6000000000e-04
1670, 2.0000000000e-04, 0.0000000000e+00, 1.6000000000e-04
1671, 2.4000000000e-04, 0.0000000000e+00, 1.6000000000e-04
1672, 2.8000000000e-04, 0.0000000000e+00, 1.6000000000e-04
1673, 3.2000000000e-04, 0.0000000000e+00, 1.6000000000e-04
1674, 3.6000000000e-04, 0.0000000000e+00, 1.6000000000e-04
1675, 4.0000000000e-04, 0.0000000000e+00, 1.6000000000e-04
1676, 4.4000000000e-04, 0.0000000000e+00, 1.6000000000e-04
1677, 4.8000000000e-04, 0.0000000000e+00, 1.6000000000e-04
1678, 5.2000000000e-04, 0.0000000000e+00, 1.6000000000e-04
1679, 5.6000000000e-04, 0.0000000000e+00, 1.6000000000e-04
1680, 6.0000000000e-04, 0.0000000000e+00, 1.6000000000e-04
1681, 6.4000000000e-04, 0.0000000000e+00, 1.6000000000e-04
1682, 6.8000000000e-04, 0.0000000000e+00, 1.6000000000e-04
1683, 7.2000000000e-04, 0.0000000000e+00, 1.6000000000e-04
1684, 7.6000000000e-04, 0.0000000000e+00, 1.6000000000e-04
1685, 8.0000000000e-04, 0.0000000000e+00, 1.6000000000e-04
1686, 8.4000000000e-04, 0.0000000000e+00, 1.6000000000e-04
1687, 8.8000000000e-04, 0.0000000000e+00, 1.6000000000e-04
1688, 9.2000000000e-04, 0.0000000000e+00, 1.6000000000e-04
1689, 9.6000000000e-04, 0.0000000000e+00, 1.6000000000e-04
1690, 1.0000000000e-03, 0.0000000000e+00, 1.6000000000e-04
1691, 0.0000000000e+00, 4.0000000000e-05, 1.6000000000e-04
1692, 4.0000000000e-05, 4.0000000000e-05, 1.6000000000e-04
1693, 8.0000000000e-05, 4.0000000000e-05, 1.6000000000e-04
1694, 1.2000000000e-04, 4.0000000000e-05, 1.6000000000e-04
1695, 1.6000000000e-04, 4.0000000000e-05, 1.6000000000e-04
1696, 2.0000000000e-04, 4.0000000000e-05, 1.6000000000e-04
1697, 2.4000000000e-04, 4.0000000000e-05, 1.6000000000e-04
1698, 2.8000000000e-04, 4.0000000000e-05, 1.6000000000e-04
1699, 3.2000000000e-04, 4.0000000000e-05, 1.6000000000e-04
1700, 3.6000000000e-04, 4.0000000000e-05, 1.6000000000e-04
1701, 4.0000000000e-04, 4.0000000000e-05, 1.6000000000e-04
1702, 4.4000000000e-04, 4.0000000000e-05, 1.6000000000e-04
1703, 4.8000000000e-04, 4.0000000000e-05, 1.6000000000e-04
1704, 5.2000000000e-04, 4.0000000000e-05, 1.6000000000e-04
1705, 5.6000000000e-04, 4.0000000000e-05, 1.6000000000e-04
1706, 6.0000000000e-04, 4.0000000000e-05, 1.6000000000e-04
1707, 6.4000000000e-04, 4.0000000000e-05, 1.6000000000e-04
1708, 6.8000000000e-04, 4.0000000000e-05, 1.6000000000e-04
1709, 7.2000000000e-04, 4.0000000000e-05, 1.6000000000e-04
1710, 7.6000000000e-04, 4.0000000000e-05, 1.6000000000e-04
1711, 8.0000000000e-04, 4.0000000000e-05, 1.6000000000e-04
1712, 8.4000000000e-04, 4.0000000000e-05, 1.6000000000e-04
1713, 8.8000000000e-04, 4.0000000000e-05, 1.6000000000e-04
1714, 9.2000000000e-04, 4.0000000000e-05, 1.6000000000e-04
1715, 9.6000000000e-04, 4.0000000000e-05, 1.6000000000e-04
1716, 1.0000000000e-03, 4.0000000000e-05, 1.6000000000e-04
1717, 0.0000000000e+00, 8.0000000000e-05, 1.6000000000e-04
1718, 4.0000000000e-05, 8.0000000000e-05, 1.6000000000e-04
1719, 8.0000000000e-05, 8.0000000000e-05, 1.6000000000e-04
1720, 1.2000000000e-04, 8.0000000000e-05, 1.6000000000e-04
1721, 1.6000000000e-04, 8.0000000000e-05, 1.6000000000e-04
1722, 2.0000000000e-04, 8.0000000000e-05, 1.6000000000e-04
1723, 2.4000000000e-04, 8.0000000000e-05, 1.6000000000e-04
1724, 2.8000000000e-04, 8.0000000000e-05, 1.6000000000e-04
1725, 3.2000000000e-04, 8.0000000000e-05, 1.6000000000e-04
1726, 3.6000000000e-04, 8.0000000000e-05, 1.6000000000e-04
1727, 4.0000000000e-04, 8.0000000000e-05, 1.6000000000e-04
1728, 4.4000000000e-04, 8.0000000000e-05, 1.6000000000e-04
1729, 4.8000000000e-04, 8.0000000000e-05, 1.6000000000e-04
1730, 5.2000000000e-04, 8.0000000000e-05, 1.6000000000e-04
1731, 5.6000000000e-04, 8.0000000000e-05, 1.6000000000e-04
1732, 6.0000000000e-04, 8.0000000000e-05, 1.6000000000e-04
1733, 6.4000000000e-04, 8.0000000000e-05, 1.6000000000e-04
1734, 6.8000000000e-04, 8.0000000000e-05, 1.6000000000e-04
1735, 7.2000000000e-04, 8.0000000000e-05, 1.6000000000e-04
1736, 7.6000000000e-04, 8.0000000000e-05, 1.6000000000e-04
1737, 8.0000000000e-04, 8.0000000000e-05, 1.6000000000e-04
1738, 8.4000000000e-04, 8.0000000000e-05, 1.6000000000e-04
1739, 8.8000000000e-04, 8.0000000000e-05, 1.6000000000e-04
1740, 9.2000000000e-04, 8.0000000000e-05, 1.6000000000e-04
1741, 9.6000000000e-04, 8.0000000000e-05, 1.6000000000e-04
1742, 1.0000000000e-03, 8.0000000000e-05, 1.6000000000e-04
1743, 0.0000000000e+00, 1.2000000000e-04, 1.6000000000e-04
1744, 4.0000000000e-05, 1.2000000000e-04, 1.6000000000e-04
1745, 8.0000000000e-05, 1.2000000000e-04, 1.6000000000e-04
1746, 1.2000000000e-04, 1.2000000000e-04, 1.6000000000e-04
1747, 1.6000000000e-04, 1.2000000000e-04, 1.6000000000e-04
1748, 2.0000000000e-04, 1.2000000000e-04, 1.6000000000e-04
1749, 2.4000000000e-04, 1.2000000000e-04, 1.6000000000e-04
1750, 2.8000000000e-04, 1.2000000000e-04, 1.6000000000e-04
1751, 3.2000000000e-04, 1.2000000000e-04, 1.6000000000e-04
1752, 3.6000000000e-04, 1.2000000000e-04, 1.6000000000e-04
1753, 4.0000000000e-04, 1.2000000000e-04, 1.6000000000e-04
1754, 4.4000000000e-04, 1.2000000000e-04, 1.6000000000e-04
1755, 4.8000000000e-04, 1.2000000000e-04, 1.6000000000e-04
1756, 5.2000000000e-04, 1.2000000000e-04, 1.6000000000e-04
1757, 5.6000000000e-04, 1.2000000000e-04, 1.6000000000e-04
1758, 6.0000000000e-04, 1.2000000000e-04, 1.6000000000e-04
1759, 6.4000000000e-04, 1.2000000000e-04, 1.6000000000e-04
1760, 6.8000000000e-04, 1.2000000000e-04, 1.6000000000e-04
1761, 7.2000000000e-04, 1.2000000000e-04, 1.6000000000e-04
1762, 7.6000000000e-04, 1.2000000000e-04, 1.6000000000e-04
1763, 8.0000000000e-04, 1.2000000000e-04, 1.6000000000e-04
1764, 8.4000000000e-04, 1.2000000000e-04, 1.6000000000e-04
1765, 8.8000000000e-04, 1.2000000000e-04, 1.6000000000e-04
1766, 9.2000000000e-04, 1.2000000000e-04, 1.6000000000e-04
1767, 9.6000000000e-04, 1.2000000000e-04, 1.6000000000e-04
1768, 1.0000000000e-03, 1.2000000000e-04, 1.6000000000e-04
1769, 0.0000000000e+00, 1.6000000000e-04, 1.6000000000e-04
1770, 4.0000000000e-05, 1.6000000000e-04, 1.6000000000e-04
1771, 8.0000000000e-05, 1.6000000000e-04, 1.6000000000e-04
1772, 1.2000000000e-04, 1.6000000000e-04, 1.6000000000e-04
1773, 1.6000000000e-04, 1.6000000000e-04, 1.6000000000e-04
1774, 2.0000000000e-04, 1.6000000000e-04, 1.6000000000e-04
1775, 2.4000000000e-04, 1.6000000000e-04, 1.6000000000e-04
1776, 2.8000000000e-04, 1.6000000000e-04, 1.6000000000e-04
1777, 3.2000000000e-04, 1.6000000000e-04, 1.6000000000e-04
1778, 3.6000000000e-04, 1.6000000000e-04, 1.6000000000e-04
1779, 4.0000000000e-04, 1.6000000000e-04, 1.6000000000e-04
1780, 4.4000000000e-04, 1.6000000000e-04, 1.6000000000e-04
1781, 4.8000000000e-04, 1.6000000000e-04, 1.6000000000e-04
1782, 5.2000000000e-04, 1.6000000000e-04, 1.6000000000e-04
1783, 5.6000000000e-04, 1.6000000000e-04, 1.6000000000e-04
1784, 6.0000000000e-04, 1.6000000000e-04, 1.6000000000e-04
1785, 6.4000000000e-04, 1.6000000000e-04, 1.6000000000e-04
1786, 6.8000000000e-04, 1.6000000000e-04, 1.6000000000e-04
1787, 7.2000000000e-04, 1.6000000000e-04, 1.6000000000e-04
1788, 7.6000000000e-04, 1.6000000000e-04, 1.6000000000e-04
1789, 8.0000000000e-04, 1.6000000000e-04, 1.6000000000e-04
1790, 8.4000000000e-04, 1.6000000000e-04, 1.6000000000e-04
1791, 8.8000000000e-04, 1.6000000000e-04, 1.6000000000e-04
1792, 9.2000000000e-04, 1.6000000000e-04, 1.6000000000e-04
1793, 9.6000000000e-04, 1.6000000000e-04, 1.6000000000e-04
1794, 1.0000000000e-03, 1.6000000000e-04, 1.6000000000e-04
1795, 0.0000000000e+00, 2.0000000000e-04, 1.6000000000e-04
1796, 4.0000000000e-05, 2.0000000000e-04, 1.6000000000e-04
1797, 8.0000000000e-05, 2.0000000000e-04, 1.6000000000e-04
1798, 1.2000000000e-04, 2.0000000000e-04, 1.6000000000e-04
1799, 1.6000000000e-04, 2.0000000000e-04, 1.6000000000e-04
1800, 2.0000000000e-04, 2.0000000000e-04, 1.6000000000e-04
1801, 2.4000000000e-04, 2.0000000000e-04, 1.6000000000e-04
1802, 2.8000000000e-04, 2.0000000000e-04, 1.6000000000e-04
1803, 3.2000000000e-04, 2.0000000000e-04, 1.6000000000e-04
1804, 3.6000000000e-04, 2.0000000000e-04, 1.6000000000e-04
1805, 4.0000000000e-04, 2.0000000000e-04, 1.6000000000e-04
1806, 4.4000000000e-04, 2.0000000000e-04, 1.6000000000e-04
1807, 4.8000000000e-04, 2.0000000000e-04, 1.6000000000e-04
1808, 5.2000000000e-04, 2.0000000000e-04, 1.6000000000e-04
1809, 5.6000000000e-04, 2.0000000000e-04, 1.6000000000e-04
1810, 6.0000000000e-04, 2.0000000000e-04, 1.6000000000e-04
1811, 6.4000000000e-04, 2.0000000000e-04, 1.6000000000e-04
1812, 6.8000000000e-04, 2.0000000000e-04, 1.6000000000e-04
1813, 7.2000000000e-04, 2.0000000000e-04, 1.6000000000e-04
1814, 7.6000000000e-04, 2.0000000000e-04, 1.6000000000e-04
1815, 8.0000000000e-04, 2.0000000000e-04, 1.6000000000e-04
1816, 8.4000000000e-04, 2.0000000000e-04, 1.6000000000e-04
1817, 8.8000000000e-04, 2.0000000000e-04, 1.6000000000e-04
1818, 9.2000000000e-04, 2.0000000000e-04, 1.6000000000e-04
1819, 9.6000000000e-04, 2.0000000000e-04, 1.6000000000e-04
1820, 1.0000000000e-03, 2.0000000000e-04, 1.6000000000e-04
1821, 0.0000000000e+00, 2.4000000000e-04, 1.6000000000e-04
1822, 4.0000000000e-05, 2.4000000000e-04, 1.6000000000e-04
1823, 8.0000000000e-05, 2.4000000000e-04, 1.6000000000e-04
1824, 1.2000000000e-04, 2.4000000000e-04, 1.6000000000e-04
1825, 1.6000000000e-04, 2.4000000000e-04, 1.6000000000e-04
1826, 2.0000000000e-04, 2.4000000000e-04, 1.6000000000e-04
1827, 2.4000000000e-04, 2.4000000000e-04, 1.6000000000e-04
1828, 2.8000000000e-04, 2.4000000000e-04, 1.6000000000e-04
1829, 3.2000000000e-04, 2.4000000000e-04, 1.6000000000e-04
1830, 3.6000000000e-04, 2.4000000000e-04, 1.6000000000e-04
1831, 4.0000000000e-04, 2.4000000000e-04, 1.6000000000e-04
1832, 4.4000000000e-04, 2.4000000000e-04, 1.6000000000e-04
1833, 4.8000000000e-04, 2.4000000000e-04, 1.6000000000e-04
1834, 5.2000000000e-04, 2.4000000000e-04, 1.6000000000e-04
1835, 5.6000000000e-04, 2.4000000000e-04, 1.6000000000e-04
1836, 6.0000000000e-04, 2.4000000000e-04, 1.6000000000e-04
1837, 6.4000000000e-04, 2.4000000000e-04, 1.6000000000e-04
1838, 6.8000000000e-04, 2.4000000000e-04, 1.6000000000e-04
1839, 7.2000000000e-04, 2.4000000000e-04, 1.6000000000e-04
1840, 7.6000000000e-04, 2.4000000000e-04, 1.6000000000e-04
1841, 8.0000000000e-04, 2.4000000000e-04, 1.6000000000e-04
1842, 8.4000000000e-04, 2.4000000000e-04, 1.6000000000e-04
1843, 8.8000000000e-04, 2.4000000000e-04, 1.6000000000e-04
1844, 9.2000000000e-04, 2.4000000000e-04, 1.6000000000e-04
1845, 9.6000000000e-04, 2.4000000000e-04, 1.6000000000e-04
1846, 1.0000000000e-03, 2.4000000000e-04, 1.6000000000e-04
1847, 0.0000000000e+00, 2.8000000000e-04, 1.6000000000e-04
1848, 4.0000000000e-05, 2.8000000000e-04, 1.6000000000e-04
1849, 8.0000000000e-05, 2.8000000000e-04, 1.6000000000e-04
1850, 1.2000000000e-04, 2.8000000000e-04, 1.6000000000e-04
1851, 1.6000000000e-04, 2.8000000000e-04, 1.6000000000e-04
1852, 2.0000000000e-04, 2.8000000000e-04, 1.6000000000e-04
1853, 2.4000000000e-04, 2.8000000000e-04, 1.6000000000e-04
1854, 2.8000000000e-04, 2.8000000000e-04, 1.6000000000e-04
1855, 3.2000000000e-04, 2.8000000000e-04, 1.6000000000e-04
1856, 3.6000000000e-04, 2.8000000000e-04, 1.6000000000e-04
1857, 4.0000000000e-04, 2.8000000000e-04, 1.6000000000e-04
1858, 4.4000000000e-04, 2.8000000000e-04, 1.6000000000e-04
1859, 4.8000000000e-04, 2.8000000000e-04, 1.6000000000e-04
1860, 5.2000000000e-04, 2.8000000000e-04, 1.6000000000e-04
1861, 5.6000000000e-04, 2.8000000000e-04, 1.6000000000e-04
1862, 6.0000000000e-04, 2.8000000000e-04, 1.6000000000e-04
1863, 6.4000000000e-04, 2.8000000000e-04, 1.6000000000e-04
1864, 6.8000000000e-04, 2.8000000000e-04, 1.6000000000e-04
1865, 7.2000000000e-04, 2.8000000000e-04, 1.6000000000e-04
1866, 7.6000000000e-04, 2.8000000000e-04, 1.6000000000e-04
1867, 8.0000000000e-04, 2.8000000000e-04, 1.6000000000e-04
1868, 8.4000000000e-04, 2.8000000000e-04, 1.6000000000e-04
1869, 8.8000000000e-04, 2.8000000000e-04, 1.6000000000e-04
1870, 9.2000000000e-04, 2.8000000000e-04, 1.6000000000e-04
1871, 9.6000000000e-04, 2.8000000000e-04, 1.6000000000e-04
1872, 1.0000000000e-03, 2.8000000000e-04, 1.6000000000e-04
1873, 0.0000000000e+00, 3.2000000000e-04, 1.6000000000e-04
1874, 4.0000000000e-05, 3.2000000000e-04, 1.6000000000e-04
1875, 8.0000000000e-05, 3.2000000000e-04, 1.6000000000e-04
1876, 1.2000000000e-04, 3.2000000000e-04, 1.6000000000e-04
1877, 1.6000000000e-04, 3.2000000000e-04, 1.6000000000e-04
1878, 2.0000000000e-04, 3.2000000000e-04, 1.6000000000e-04
1879, 2.4000000000e-04, 3.2000000000e-04, 1.6000000000e-04
1880, 2.8000000000e-04, 3.2000000000e-04, 1.6000000000e-04
1881, 3.2000000000e-04, 3.2000000000e-04, 1.6000000000e-04
1882, 3.6000000000e-04, 3.2000000000e-04, 1.6000000000e-04
1883, 4.0000000000e-04, 3.2000000000e-04, 1.6000000000e-04
1884, 4.4000000000e-04, 3.2000000000e-04, 1.6000000000e-04
1885, 4.8000000000e-04, 3.2000000000e-04, 1.6000000000e-04
1886, 5.2000000000e-04, 3.2000000000e-04, 1.6000000000e-04
1887, 5.6000000000e-04, 3.2000000000e-04, 1.6000000000e-04
1888, 6.0000000000e-04, 3.2000000000e-04, 1.6000000000e-04
1889, 6.4000000000e-04, 3.2000000000e-04, 1.6000000000e-04
1890, 6.8000000000e-04, 3.2000000000e-04, 1.6000000000e-04
1891, 7.2000000000e-04, 3.2000000000e-04, 1.6000000000e-04
1892, 7.6000000000e-04, 3.2000000000e-04, 1.6000000000e-04
1893, 8.0000000000e-04, 3.2000000000e-04, 1.6000000000e-04
1894, 8.4000000000e-04, 3.2000000000e-04, 1.6000000000e-04
1895, 8.8000000000e-04, 3.2000000000e-04, 1.6000000000e-04
1896, 9.2000000000e-04, 3.2000000000e-04, 1.6000000000e-04
1897, 9.6000000000e-04, 3.2000000000e-04, 1.6000000000e-04
1898, 1.0000000000e-03, 3.2000000000e-04, 1.6000000000e-04
1899, 0.0000000000e+00, 3.6000000000e-04, 1.6000000000e-04
1900, 4.0000000000e-05, 3.6000000000e-04, 1.6000000000e-04
1901, 8.0000000000e-05, 3.6000000000e-04, 1.6000000000e-04
1902, 1.2000000000e-04, 3.6000000000e-04, 1.6000000000e-04
1903, 1.6000000000e-04, 3.6000000000e-04, 1.6000000000e-04
1904, 2.0000000000e-04, 3.6000000000e-04, 1.6000000000e-04
1905, 2.4000000000e-04, 3.6000000000e-04, 1.6000000000e-04
1906, 2.8000000000e-04, 3.6000000000e-04, 1.6000000000e-04
1907, 3.2000000000e-04, 3.6000000000e-04, 1.6000000000e-04
1908, 3.6000000000e-04, 3.6000000000e-04, 1.6000000000e-04
1909, 4.0000000000e-04, 3.6000000000e-04, 1.6000000000e-04
1910, 4.4000000000e-04, 3.6000000000e-04, 1.6000000000e-04
1911, 4.8000000000e-04, 3.6000000000e-04, 1.6000000000e-04
1912, 5.2000000000e-04, 3.6000000000e-04, 1.6000000000e-04
1913, 5.6000000000e-04, 3.6000000000e-04, 1.6000000000e-04
1914, 6.0000000000e-04, 3.6000000000e-04, 1.6000000000e-04
1915, 6.4000000000e-04, 3.6000000000e-04, 1.6000000000e-04
1916, 6.8000000000e-04, 3.6000000000e-04, 1.6000000000e-04
1917, 7.2000000000e-04, 3.6000000000e-04, 1.6000000000e-04
1918, 7.6000000000e-04, 3.6000000000e-04, 1.6000000000e-04
1919, 8.0000000000e-04, 3.6000000000e-04, 1.6000000000e-04
1920, 8.4000000000e-04, 3.6000000000e-04, 1.6000000000e-04
1921, 8.8000000000e-04, 3.6000000000e-04, 1.6000000000e-04
1922, 9.2000000000e-04, 3.6000000000e-04, 1.6000000000e-04
1923, 9.6000000000e-04, 3.6000000000e-04, 1.6000000000e-04
1924, 1.0000000000e-03, 3.6000000000e-04, 1.6000000000e-04
1925, 0.0000000000e+00, 4.0000000000e-04, 1.6000000000e-04
1926, 4.0000000000e-05, 4.0000000000e-04, 1.6000000000e-04
1927, 8.0000000000e-05, 4.0000000000e-04, 1.6000000000e-04
1928, 1.2000000000e-04, 4.0000000000e-04, 1.6000000000e-04
1929, 1.6000000000e-04, 4.0000000000e-04, 1.6000000000e-04
1930, 2.0000000000e-04, 4.0000000000e-04, 1.6000000000e-04
1931, 2.4000000000e-04, 4.0000000000e-04, 1.6000000000e-04
1932, 2.8000000000e-04, 4.0000000000e-04, 1.6000000000e-04
1933, 3.2000000000e-04, 4.0000000000e-04, 1.6000000000e-04
1934, 3.6000000000e-04, 4.0000000000e-04, 1.6000000000e-04
1935, 4.0000000000e-04, 4.0000000000e-04, 1.6000000000e-04
1936, 4.4000000000e-04, 4.0000000000e-04, 1.6000000000e-04
1937, 4.8000000000e-04, 4.0000000000e-04, 1.6000000000e-04
1938, 5.2000000000e-04, 4.0000000000e-04, 1.6000000000e-04
1939, 5.6000000000e-04, 4.0000000000e-04, 1.6000000000e-04
1940, 6.0000000000e-04, 4.0000000000e-04, 1.6000000000e-04
1941, 6.4000000000e-04, 4.0000000000e-04, 1.6000000000e-04
1942, 6.8000000000e-04, 4.0000000000e-04, 1.6000000000e-04
1943, 7.2000000000e-04, 4.0000000000e-04, 1.6000000000e-04
1944, 7.6000000000e-04, 4.0000000000e-04, 1.6000000000e-04
1945, 8.0000000000e-04, 4.0000000000e-04, 1.6000000000e-04
1946, 8.4000000000e-04, 4.0000000000e-04, 1.6000000000e-04
1947, 8.8000000000e-04, 4.0000000000e-04, 1.6000000000e-04
1948, 9.2000000000e-04, 4.0000000000e-04, 1.6000000000e-04
1949, 9.6000000000e-04, 4.0000000000e-04, 1.6000000000e-04
1950, 1.0000000000e-03, 4.0000000000e-04, 1.6000000000e-04
1951, 0.0000000000e+00, 4.4000000000e-04, 1.6000000000e-04
1952, 4.0000000000e-05, 4.4000000000e-04, 1.6000000000e-04
1953, 8.0000000000e-05, 4.4000000000e-04, 1.6000000000e-04
1954, 1.2000000000e-04, 4.4000000000e-04, 1.6000000000e-04
1955, 1.6000000000e-04, 4.4000000000e-04, 1.6000000000e-04
1956, 2.0000000000e-04, 4.4000000000e-04, 1.6000000000e-04
1957, 2.4000000000e-04, 4.4000000000e-04, 1.6000000000e-04
1958, 2.8000000000e-04, 4.4000000000e-04, 1.6000000000e-04
1959, 3.2000000000e-04, 4.4000000000e-04, 1.6000000000e-04
1960, 3.6000000000e-04, 4.4000000000e-04, 1.6000000000e-04
1961, 4.0000000000e-04, 4.4000000000e-04, 1.6000000000e-04
1962, 4.4000000000e-04, 4.4000000000e-04, 1.6000000000e-04
1963, 4.8000000000e-04, 4.4000000000e-04, 1.6000000000e-04
1964, 5.2000000000e-04, 4.4000000000e-04, 1.6000000000e-04
1965, 5.6000000000e-04, 4.4000000000e-04, 1.6000000000e-04
1966, 6.0000000000e-04, 4.4000000000e-04, 1.6000000000e-04
1967, 6.4000000000e-04, 4.4000000000e-04, 1.6000000000e-04
1968, 6.8000000000e-04, 4.4000000000e-04, 1.6000000000e-04
1969, 7.2000000000e-04, 4.4000000000e-04, 1.6000000000e-04
1970, 7.6000000000e-04, 4.4000000000e-04, 1.6000000000e-04
1971, 8.0000000000e-04, 4.4000000000e-04, 1.6000000000e-04
1972, 8.4000000000e-04, 4.4000000000e-04, 1.6000000000e-04
1973, 8.8000000000e-04, 4.4000000000e-04, 1.6000000000e-04
1974, 9.2000000000e-04, 4.4000000000e-04, 1.6000000000e-04
1975, 9.6000000000e-04, 4.4000000000e-04, 1.6000000000e-04
1976, 1.0000000000e-03, 4.4000000000e-04, 1.6000000000e-04
1977, 0.0000000000e+00, 4.8000000000e-04, 1.6000000000e-04
1978, 4.0000000000e-05, 4.8000000000e-04, 1.6000000000e-04
1979, 8.0000000000e-05, 4.8000000000e-04, 1.6000000000e-04
1980, 1.2000000000e-04, 4.8000000000e-04, 1.6000000000e-04
1981, 1.6000000000e-04, 4.8000000000e-04, 1.6000000000e-04
1982, 2.0000000000e-04, 4.8000000000e-04, 1.6000000000e-04
1983, 2.4000000000e-04, 4.8000000000e-04, 1.6000000000e-04
1984, 2.8000000000e-04, 4.8000000000e-04, 1.6000000000e-04
1985, 3.2000000000e-04, 4.8000000000e-04, 1.6000000000e-04
1986, 3.6000000000e-04, 4.8000000000e-04, 1.6000000000e-04
1987, 4.0000000000e-04, 4.8000000000e-04, 1.6000000000e-04
1988, 4.4000000000e-04, 4.8000000000e-04, 1.6000000000e-04
1989, 4.8000000000e-04, 4.8000000000e-04, 1.6000000000e-04
1990, 5.2000000000e-04, 4.8000000000e-04, 1.6000000000e-04
1991, 5.6000000000e-04, 4.8000000000e-04, 1.6000000000e-04
1992, 6.0000000000e-04, 4.8000000000e-04, 1.6000000000e-04
1993, 6.4000000000e-04, 4.8000000000e-04, 1.6000000000e-04
1994, 6.8000000000e-04, 4.8000000000e-04, 1.6000000000e-04
1995, 7.2000000000e-04, 4.8000000000e-04, 1.6000000000e-04
1996, 7.6000000000e-04, 4.8000000000e-04, 1.6000000000e-04
1997, 8.0000000000e-04, 4.8000000000e-04, 1.6000000000e-04
1998, 8.4000000000e-04, 4.8000000000e-04, 1.6000000000e-04
1999, 8.8000000000e-04, 4.8000000000e-04, 1.6000000000e-04
2000, 9.2000000000e-04, 4.8000000000e-04, 1.6000000000e-04
2001, 9.6000000000e-04, 4.8000000000e-04, 1.6000000000e-04
2002, 1.0000000000e-03, 4.8000000000e-04, 1.6000000000e-04
2003, 0.0000000000e+00, 5.2000000000e-04, 1.6000000000e-04
2004, 4.0000000000e-05, 5.2000000000e-04, 1.6000000000e-04
2005, 8.0000000000e-05, 5.2000000000e-04, 1.6000000000e-04
2006, 1.2000000000e-04, 5.2000000000e-04, 1.6000000000e-04
2007, 1.6000000000e-04, 5.2000000000e-04, 1.6000000000e-04
2008, 2.0000000000e-04, 5.2000000000e-04, 1.6000000000e-04
2009, 2.4000000000e-04, 5.2000000000e-04, 1.6000000000e-04
2010, 2.8000000000e-04, 5.2000000000e-04, 1.6000000000e-04
2011, 3.2000000000e-04, 5.2000000000e-04, 1.6000000000e-04
2012, 3.6000000000e-04, 5.2000000000e-04, 1.6000000000e-04
2013, 4.0000000000e-04, 5.2000000000e-04, 1.6000000000e-04
2014, 4.4000000000e-04, 5.2000000000e-04, 1.6000000000e-04
2015, 4.8000000000e-04, 5.2000000000e-04, 1.6000000000e-04
2016, 5.2000000000e-04, 5.2000000000e-04, 1.6000000000e-04
2017, 5.6000000000e-04, 5.2000000000e-04, 1.6000000000e-04
2018, 6.0000000000e-04, 5.2000000000e-04, 1.6000000000e-04
2019, 6.4000000000e-04, 5.2000000000e-04, 1.6000000000e-04
2020, 6.8000000000e-04, 5.2000000000e-04, 1.6000000000e-04
2021, 7.2000000000e-04, 5.2000000000e-04, 1.6000000000e-04
2022, 7.6000000000e-04, 5.2000000000e-04, 1.6000000000e-04
2023, 8.0000000000e-04, 5.2000000000e-04, 1.6000000000e-04
2024, 8.4000000000e-04, 5.2000000000e-04, 1.6000000000e-04
2025, 8.8000000000e-04, 5.2000000000e-04, 1.6000000000e-04
2026, 9.2000000000e-04, 5.2000000000e-04, 1.6000000000e-04
2027, 9.6000000000e-04, 5.2000000000e-04, 1.6000000000e-04
2028, 1.0000000000e-03, 5.2000000000e-04, 1.6000000000e-04
2029, 0.0000000000e+00, 5.6000000000e-04, 1.6000000000e-04
2030, 4.0000000000e-05, 5.6000000000e-04, 1.6000000000e-04
2031, 8.0000000000e-05, 5.6000000000e-04, 1.6000000000e-04
2032, 1.2000000000e-04, 5.6000000000e-04, 1.6000000000e-04
2033, 1.6000000000e-04, 5.6000000000e-04, 1.6000000000e-04
2034, 2.0000000000e-04, 5.6000000000e-04, 1.6000000000e-04
2035, 2.4000000000e-04, 5.6000000000e-04, 1.6000000000e-04
2036, 2.8000000000e-04, 5.6000000000e-04, 1.6000000000e-04
2037, 3.2000000000e-04, 5.6000000000e-04, 1.6000000000e-04
2038, 3.6000000000e-04, 5.6000000000e-04, 1.6000000000e-04
2039, 4.0000000000e-04, 5.6000000000e-04, 1.6000000000e-04
2040, 4.4000000000e-04, 5.6000000000e-04, 1.6000000000e-04
2041, 4.8000000000e-04, 5.6000000000e-04, 1.6000000000e-04
2042, 5.2000000000e-04, 5.6000000000e-04, 1.6000000000e-04
2043, 5.6000000000e-04, 5.6000000000e-04, 1.6000000000e-04
2044, 6.0000000000e-04, 5.6000000000e-04, 1.6000000000e-04
2045, 6.4000000000e-04, 5.6000000000e-04, 1.6000000000e-04
2046, 6.8000000000e-04, 5.6000000000e-04, 1.6000000000e-04
2047, 7.2000000000e-04, 5.6000000000e-04, 1.6000000000e-04
2048, 7.6000000000e-04, 5.6000000000e-04, 1.6000000000e-04
2049, 8.0000000000e-04, 5.6000000000e-04, 1.6000000000e-04
2050, 8.4000000000e-04, 5.6000000000e-04, 1.6000000000e-04
2051, 8.8000000000e-04, 5.6000000000e-04, 1.6000000000e-04
2052, 9.2000000000e-04, 5.6000000000e-04, 1.6000000000e-04
2053, 9.6000000000e-04, 5.6000000000e-04, 1.6000000000e-04
2054, 1.0000000000e-03, 5.6000000000e-04, 1.6000000000e-04
2055, 0.0000000000e+00, 6.0000000000e-04, 1.6000000000e-04
2056, 4.0000000000e-05, 6.0000000000e-04, 1.6000000000e-04
2057, 8.0000000000e-05, 6.0000000000e-04, 1.6000000000e-04
2058, 1.2000000000e-04, 6.0000000000e-04, 1.6000000000e-04
2059, 1.6000000000e-04, 6.0000000000e-04, 1.6000000000e-04
2060, 2.0000000000e-04, 6.0000000000e-04, 1.6000000000e-04
2061, 2.4000000000e-04, 6.0000000000e-04, 1.6000000000e-04
2062, 2.8000000000e-04, 6.0000000000e-04, 1.6000000000e-04
2063, 3.2000000000e-04, 6.0000000000e-04, 1.6000000000e-04
2064, 3.6000000000e-04, 6.0000000000e-04, 1.6000000000e-04
2065, 4.0000000000e-04, 6.0000000000e-04, 1.6000000000e-04
2066, 4.4000000000e-04, 6.0000000000e-04, 1.6000000000e-04
2067, 4.8000000000e-04, 6.0000000000e-04, 1.6000000000e-04
2068, 5.2000000000e-04, 6.0000000000e-04, 1.6000000000e-04
2069, 5.6000000000e-04, 6.0000000000e-04, 1.6000000000e-04
2070, 6.0000000000e-04, 6.0000000000e-04, 1.6000000000e-04
2071, 6.4000000000e-04, 6.0000000000e-04, 1.6000000000e-04
2072, 6.8000000000e-04, 6.0000000000e-04, 1.6000000000e-04
2073, 7.2000000000e-04, 6.0000000000e-04, 1.6000000000e-04
2074, 7.6000000000e-04, 6.0000000000e-04, 1.6000000000e-04
2075, 8.0000000000e-04, 6.0000000000e-04, 1.6000000000e-04
2076, 8.4000000000e-04, 6.0000000000e-04, 1.6000000000e-04
2077, 8.8000000000e-04, 6.0000000000e-04, 1.6000000000e-04
2078, 9.2000000000e-04, 6.0000000000e-04, 1.6000000000e-04
2079, 9.6000000000e-04, 6.0000000000e-04, 1.6000000000e-04
2080, 1.0000000000e-03, 6.0000000000e-04, 1.6000000000e-04
2081, 0.0000000000e+00, 0.0000000000e+00, 2.0000000000e-04
2082, 4.0000000000e-05, 0.0000000000e+00, 2.0000000000e-04
2083, 8.0000000000e-05, 0.0000000000e+00, 2.0000000000e-04
2084, 1.2000000000e-04, 0.0000000000e+00, 2.0000000000e-04
2085, 1.6000000000e-04, 0.0000000000e+00, 2.0000000000e-04
2086, 2.0000000000e-04, 0.0000000000e+00, 2.0000000000e-04
2087, 2.4000000000e-04, 0.0000000000e+00, 2.0000000000e-04
2088, 2.8000000000e-04, 0.0000000000e+00, 2.0000000000e-04
2089, 3.2000000000e-04, 0.0000000000e+00, 2.0000000000e-04
2090, 3.6000000000e-04, 0.0000000000e+00, 2.0000000000e-04
2091, 4.0000000000e-04, 0.0000000000e+00, 2.0000000000e-04
2092, 4.4000000000e-04, 0.0000000000e+00, 2.0000000000e-04
2093, 4.8000000000e-04, 0.0000000000e+00, 2.0000000000e-04
2094, 5.2000000000e-04, 0.0000000000e+00, 2.0000000000e-04
2095, 5.6000000000e-04, 0.0000000000e+00, 2.0000000000e-04
2096, 6.0000000000e-04, 0.0000000000e+00, 2.0000000000e-04
2097, 6.4000000000e-04, 0.0000000000e+00, 2.0000000000e-04
2098, 6.8000000000e-04, 0.0000000000e+00, 2.0000000000e-04
2099, 7.2000000000e-04, 0.0000000000e+00, 2.0000000000e-04
2100, 7.6000000000e-04, 0.0000000000e+00, 2.0000000000e-04
2101, 8.0000000000e-04, 0.0000000000e+00, 2.0000000000e-04
2102, 8.4000000000e-04, 0.0000000000e+00, 2.0000000000e-04
2103, 8.8000000000e-04, 0.0000000000e+00, 2.0000000000e-04
2104, 9.2000000000e-04, 0.0000000000e+00, 2.0000000000e-04
2105, 9.6000000000e-04, 0.0000000000e+00, 2.0000000000e-04
2106, 1.0000000000e-03, 0.0000000000e+00, 2.0000000000e-04
2107, 0.0000000000e+00, 4.0000000000e-05, 2.0000000000e-04
2108, 4.0000000000e-05, 4.0000000000e-05, 2.0000000000e-04
2109, 8.0000000000e-05, 4.0000000000e-05, 2.0000000000e-04
2110, 1.2000000000e-04, 4.0000000000e-05, 2.0000000000e-04
2111, 1.6000000000e-04, 4.0000000000e-05, 2.0000000000e-04
2112, 2.0000000000e-04, 4.0000000000e-05, 2.0000000000e-04
2113, 2.4000000000e-04, 4.0000000000e-05, 2.0000000000e-04
2114, 2.8000000000e-04, 4.0000000000e-05, 2.0000000000e-04
2115, 3.2000000000e-04, 4.0000000000e-05, 2.0000000000e-04
2116, 3.6000000000e-04, 4.0000000000e-05, 2.0000000000e-04
2117, 4.0000000000e-04, 4.0000000000e-05, 2.0000000000e-04
2118, 4.4000000000e-04, 4.0000000000e-05, 2.0000000000e-04
2119, 4.8000000000e-04, 4.0000000000e-05, 2.0000000000e-04
2120, 5.2000000000e-04, 4.0000000000e-05, 2.0000000000e-04
2121, 5.6000000000e-04, 4.0000000000e-05, 2.0000000000e-04
2122, 6.0000000000e-04, 4.0000000000e-05, 2.0000000000e-04
2123, 6.4000000000e-04, 4.0000000000e-05, 2.0000000000e-04
2124, 6.8000000000e-04, 4.0000000000e-05, 2.0000000000e-04
2125, 7.2000000000e-04, 4.0000000000e-05, 2.0000000000e-04
2126, 7.6000000000e-04, 4.0000000000e-05, 2.0000000000e-04
2127, 8.0000000000e-04, 4.0000000000e-05, 2.0000000000e-04
2128, 8.4000000000e-04, 4.0000000000e-05, 2.0000000000e-04
2129, 8.8000000000e-04, 4.0000000000e-05, 2.0000000000e-04
2130, 9.2000000000e-04, 4.0000000000e-05, 2.0000000000e-04
2131, 9.6000000000e-04, 4.0000000000e-05, 2.0000000000e-04
2132, 1.0000000000e-03, 4.0000000000e-05, 2.0000000000e-04
2133, 0.0000000000e+00, 8.0000000000e-05, 2.0000000000e-04
2134, 4.0000000000e-05, 8.0000000000e-05, 2.0000000000e-04
2135, 8.0000000000e-05, 8.0000000000e-05, 2.0000000000e-04
2136, 1.2000000000e-04, 8.0000000000e-05, 2.0000000000e-04
2137, 1.6000000000e-04, 8.0000000000e-05, 2.0000000000e-04
2138, 2.0000000000e-04, 8.0000000000e-05, 2.0000000000e-04
2139, 2.4000000000e-04, 8.0000000000e-05, 2.0000000000e-04
2140, 2.8000000000e-04, 8.0000000000e-05, 2.0000000000e-04
2141, 3.2000000000e-04, 8.0000000000e-05, 2.0000000000e-04
2142, 3.6000000000e-04, 8.0000000000e-05, 2.0000000000e-04
2143, 4.0000000000e-04, 8.0000000000e-05, 2.0000000000e-04
2144, 4.4000000000e-04, 8.0000000000e-05, 2.0000000000e-04
2145, 4.8000000000e-04, 8.0000000000e-05, 2.0000000000e-04
2146, 5.2000000000e-04, 8.0000000000e-05, 2.0000000000e-04
2147, 5.6000000000e-04, 8.0000000000e-05, 2.0000000000e-04
2148, 6.0000000000e-04, 8.0000000000e-05, 2.0000000000e-04
2149, 6.4000000000e-04, 8.0000000000e-05, 2.0000000000e-04
2150, 6.8000000000e-04, 8.0000000000e-05, 2.0000000000e-04
2151, 7.2000000000e-04, 8.0000000000e-05, 2.0000000000e-04
2152, 7.6000000000e-04, 8.0000000000e-05, 2.0000000000e-04
2153, 8.0000000000e-04, 8.0000000000e-05, 2.0000000000e-04
2154, 8.4000000000e-04, 8.0000000000e-05, 2.0000000000e-04
2155, 8.8000000000e-04, 8.0000000000e-05, 2.0000000000e-04
2156, 9.2000000000e-04, 8.0000000000e-05, 2.0000000000e-04
2157, 9.6000000000e-04, 8.0000000000e-05, 2.0000000000e-04
2158, 1.0000000000e-03, 8.0000000000e-05, 2.0000000000e-04
2159, 0.0000000000e+00, 1.2000000000e-04, 2.0000000000e-04
2160, 4.0000000000e-05, 1.2000000000e-04, 2.0000000000e-04
2161, 8.0000000000e-05, 1.2000000000e-04, 2.0000000000e-04
2162, 1.2000000000e-04, 1.2000000000e-04, 2.0000000000e-04
2163, 1.6000000000e-04, 1.2000000000e-04, 2.0000000000e-04
2164, 2.0000000000e-04, 1.2000000000e-04, 2.0000000000e-04
2165, 2.4000000000e-04, 1.2000000000e-04, 2.0000000000e-04
2166, 2.8000000000e-04, 1.2000000000e-04, 2.0000000000e-04
2167, 3.2000000000e-04, 1.2000000000e-04, 2.0000000000e-04
2168, 3.6000000000e-04, 1.2000000000e-04, 2.0000000000e-04
2169, 4.0000000000e-04, 1.2000000000e-04, 2.0000000000e-04
2170, 4.4000000000e-04, 1.2000000000e-04, 2.0000000000e-04
2171, 4.8000000000e-04, 1.2000000000e-04, 2.0000000000e-04
2172, 5.2000000000e-04, 1.2000000000e-04, 2.0000000000e-04
2173, 5.6000000000e-04, 1.2000000000e-04, 2.0000000000e-04
2174, 6.0000000000e-04, 1.2000000000e-04, 2.0000000000e-04
2175, 6.4000000000e-04, 1.2000000000e-04, 2.0000000000e-04
2176, 6.8000000000e-04, 1.2000000000e-04, 2.0000000000e-04
2177, 7.2000000000e-04, 1.2000000000e-04, 2.0000000000e-04
2178, 7.6000000000e-04, 1.2000000000e-04, 2.0000000000e-04
2179, 8.0000000000e-04, 1.2000000000e-04, 2.0000000000e-04
2180, 8.4000000000e-04, 1.2000000000e-04, 2.0000000000e-04
2181, 8.8000000000e-04, 1.2000000000e-04, 2.0000000000e-04
2182, 9.2000000000e-04, 1.2000000000e-04, 2.0000000000e-04
2183, 9.6000000000e-04, 1.2000000000e-04, 2.0000000000e-04
2184, 1.0000000000e-03, 1.2000000000e-04, 2.0000000000e-04
2185, 0.0000000000e+00, 1.6000000000e-04, 2.0000000000e-04
2186, 4.0000000000e-05, 1.6000000000e-04, 2.0000000000e-04
2187, 8.0000000000e-05, 1.6000000000e-04, 2.0000000000e-04
2188, 1.2000000000e-04, 1.6000000000e-04, 2.0000000000e-04
2189, 1.6000000000e-04, 1.6000000000e-04, 2.0000000000e-04
2190, 2.0000000000e-04, 1.6000000000e-04, 2.0000000000e-04
2191, 2.4000000000e-04, 1.6000000000e-04, 2.0000000000e-04
2192, 2.8000000000e-04, 1.6000000000e-04, 2.0000000000e-04
2193, 3.2000000000e-04, 1.6000000000e-04, 2.0000000000e-04
2194, 3.6000000000e-04, 1.6000000000e-04, 2.0000000000e-04
2195, 4.0000000000e-04, 1.6000000000e-04, 2.0000000000e-04
2196, 4.4000000000e-04, 1.6000000000e-04, 2.0000000000e-04
2197, 4.8000000000e-04, 1.6000000000e-04, 2.0000000000e-04
2198, 5.2000000000e-04, 1.6000000000e-04, 2.0000000000e-04
2199, 5.6000000000e-04, 1.6000000000e-04, 2.0000000000e-04
2200, 6.0000000000e-04, 1.6000000000e-04, 2.0000000000e-04
2201, 6.4000000000e-04, 1.6000000000e-04, 2.0000000000e-04
2202, 6.8000000000e-04, 1.6000000000e-04, 2.0000000000e-04
2203, 7.2000000000e-04, 1.6000000000e-04, 2.0000000000e-04
2204, 7.6000000000e-04, 1.6000000000e-04, 2.0000000000e-04
2205, 8.0000000000e-04, 1.6000000000e-04, 2.0000000000e-04
2206, 8.4000000000e-04, 1.6000000000e-04, 2.0000000000e-04
2207, 8.8000000000e-04, 1.6000000000e-04, 2.0000000000e-04
2208, 9.2000000000e-04, 1.6000000000e-04, 2.0000000000e-04
2209, 9.6000000000e-04, 1.6000000000e-04, 2.0000000000e-04
2210, 1.0000000000e-03, 1.6000000000e-04, 2.0000000000e-04
2211, 0.0000000000e+00, 2.0000000000e-04, 2.0000000000e-04
2212, 4.0000000000e-05, 2.0000000000e-04, 2.0000000000e-04
2213, 8.0000000000e-05, 2.0000000000e-04, 2.0000000000e-04
2214, 1.2000000000e-04, 2.0000000000e-04, 2.0000000000e-04
2215, 1.6000000000e-04, 2.0000000000e-04, 2.0000000000e-04
2216, 2.0000000000e-04, 2.0000000000e-04, 2.0000000000e-04
2217, 2.4000000000e-04, 2.0000000000e-04, 2.0000000000e-04
2218, 2.8000000000e-04, 2.0000000000e-04, 2.0000000000e-04
2219, 3.2000000000e-04, 2.0000000000e-04, 2.0000000000e-04
2220, 3.6000000000e-04, 2.0000000000e-04, 2.0000000000e-04
2221, 4.0000000000e-04, 2.0000000000e-04, 2.0000000000e-04
2222, 4.4000000000e-04, 2.0000000000e-04, 2.0000000000e-04
2223, 4.8000000000e-04, 2.0000000000e-04, 2.0000000000e-04
2224, 5.2000000000e-04, 2.0000000000e-04, 2.0000000000e-04
2225, 5.6000000000e-04, 2.0000000000e-04, 2.0000000000e-04
2226, 6.0000000000e-04, 2.0000000000e-04, 2.0000000000e-04
2227, 6.4000000000e-04, 2.0000000000e-04, 2.0000000000e-04
2228, 6.8000000000e-04, 2.0000000000e-04, 2.0000000000e-04
2229, 7.2000000000e-04, 2.0000000000e-04, 2.0000000000e-04
2230, 7.6000000000e-04, 2.0000000000e-04, 2.0000000000e-04
2231, 8.0000000000e-04, 2.0000000000e-04, 2.0000000000e-04
2232, 8.4000000000e-04, 2.0000000000e-04, 2.0000000000e-04
2233, 8.8000000000e-04, 2.0000000000e-04, 2.0000000000e-04
2234, 9.2000000000e-04, 2.0000000000e-04, 2.0000000000e-04
2235, 9.6000000000e-04, 2.0000000000e-04, 2.0000000000e-04
2236, 1.0000000000e-03, 2.0000000000e-04, 2.0000000000e-04
2237, 0.0000000000e+00, 2.4000000000e-04, 2.0000000000e-04
2238, 4.0000000000e-05, 2.4000000000e-04, 2.0000000000e-04
2239, 8.0000000000e-05, 2.4000000000e-04, 2.0000000000e-04
2240, 1.2000000000e-04, 2.4000000000e-04, 2.0000000000e-04
2241, 1.6000000000e-04, 2.4000000000e-04, 2.0000000000e-04
2242, 2.0000000000e-04, 2.4000000000e-04, 2.0000000000e-04
2243, 2.4000000000e-04, 2.4000000000e-04, 2.0000000000e-04
2244, 2.8000000000e-04, 2.4000000000e-04, 2.0000000000e-04
2245, 3.2000000000e-04, 2.4000000000e-04, 2.0000000000e-04
2246, 3.6000000000e-04, 2.4000000000e-04, 2.0000000000e-04
2247, 4.0000000000e-04, 2.4000000000e-04, 2.0000000000e-04
2248, 4.4000000000e-04, 2.4000000000e-04, 2.0000000000e-04
2249, 4.8000000000e-04, 2.4000000000e-04, 2.0000000000e-04
2250, 5.2000000000e-04, 2.4000000000e-04, 2.0000000000e-04
2251, 5.6000000000e-04, 2.4000000000e-04, 2.0000000000e-04
2252, 6.0000000000e-04, 2.4000000000e-04, 2.0000000000e-04
2253, 6.4000000000e-04, 2.4000000000e-04, 2.0000000000e-04
2254, 6.8000000000e-04, 2.4000000000e-04, 2.0000000000e-04
2255, 7.2000000000e-04, 2.4000000000e-04, 2.0000000000e-04
2256, 7.6000000000e-04, 2.4000000000e-04, 2.0000000000e-04
2257, 8.0000000000e-04, 2.4000000000e-04, 2.0000000000e-04
2258, 8.4000000000e-04, 2.4000000000e-04, 2.0000000000e-04
2259, 8.8000000000e-04, 2.4000000000e-04, 2.0000000000e-04
2260, 9.2000000000e-04, 2.4000000000e-04, 2.0000000000e-04
2261, 9.6000000000e-04, 2.4000000000e-04, 2.0000000000e-04
2262, 1.0000000000e-03, 2.4000000000e-04, 2.0000000000e-04
2263, 0.0000000000e+00, 2.8000000000e-04, 2.0000000000e-04
2264, 4.0000000000e-05, 2.8000000000e-04, 2.0000000000e-04
2265, 8.0000000000e-05, 2.8000000000e-04, 2.0000000000e-04
2266, 1.2000000000e-04, 2.8000000000e-04, 2.0000000000e-04
2267, 1.6000000000e-04, 2.8000000000e-04, 2.0000000000e-04
2268, 2.0000000000e-04, 2.8000000000e-04, 2.0000000000e-04
2269, 2.4000000000e-04, 2.8000000000e-04, 2.0000000000e-04
2270, 2.8000000000e-04, 2.8000000000e-04, 2.0000000000e-04
2271, 3.2000000000e-04, 2.8000000000e-04, 2.0000000000e-04
2272, 3.6000000000e-04, 2.8000000000e-04, 2.0000000000e-04
2273, 4.0000000000e-04, 2.8000000000e-04, 2.0000000000e-04
2274, 4.4000000000e-04, 2.8000000000e-04, 2.0000000000e-04
2275, 4.8000000000e-04, 2.8000000000e-04, 2.0000000000e-04
2276, 5.2000000000e-04, 2.8000000000e-04, 2.0000000000e-04
2277, 5.6000000000e-04, 2.8000000000e-04, 2.0000000000e-04
2278, 6.0000000000e-04, 2.8000000000e-04, 2.0000000000e-04
2279, 6.4000000000e-04, 2.8000000000e-04, 2.0000000000e-04
2280, 6.8000000000e-04, 2.8000000000e-04, 2.0000000000e-04
2281, 7.2000000000e-04, 2.8000000000e-04, 2.0000000000e-04
2282, 7.6000000000e-04, 2.8000000000e-04, 2.0000000000e-04
2283, 8.0000000000e-04, 2.8000000000e-04, 2.0000000000e-04
2284, 8.4000000000e-04, 2.8000000000e-04, 2.0000000000e-04
2285, 8.8000000000e-04, 2.8000000000e-04, 2.0000000000e-04
2286, 9.2000000000e-04, 2.8000000000e-04, 2.0000000000e-04
2287, 9.6000000000e-04, 2.8000000000e-04, 2.0000000000e-04
2288, 1.0000000000e-03, 2.8000000000e-04, 2.0000000000e-04
2289, 0.0000000000e+00, 3.2000000000e-04, 2.0000000000e-04
2290, 4.0000000000e-05, 3.2000000000e-04, 2.0000000000e-04
2291, 8.0000000000e-05, 3.2000000000e-04, 2.0000000000e-04
2292, 1.2000000000e-04, 3.2000000000e-04, 2.0000000000e-04
2293, 1.6000000000e-04, 3.2000000000e-04, 2.0000000000e-04
2294, 2.0000000000e-04, 3.2000000000e-04, 2.0000000000e-04
2295, 2.4000000000e-04, 3.2000000000e-04, 2.0000000000e-04
2296, 2.8000000000e-04, 3.2000000000e-04, 2.0000000000e-04
2297, 3.2000000000e-04, 3.2000000000e-04, 2.0000000000e-04
2298, 3.6000000000e-04, 3.2000000000e-04, 2.0000000000e-04
2299, 4.0000000000e-04, 3.2000000000e-04, 2.0000000000e-04
2300, 4.4000000000e-04, 3.2000000000e-04, 2.0000000000e-04
2301, 4.8000000000e-04, 3.2000000000e-04, 2.0000000000e-04
2302, 5.2000000000e-04, 3.2000000000e-04, 2.0000000000e-04
2303, 5.6000000000e-04, 3.2000000000e-04, 2.0000000000e-04
2304, 6.0000000000e-04, 3.2000000000e-04, 2.0000000000e-04
2305, 6.4000000000e-04, 3.2000000000e-04, 2.0000000000e-04
2306, 6.8000000000e-04, 3.2000000000e-04, 2.0000000000e-04
2307, 7.2000000000e-04, 3.2000000000e-04, 2.0000000000e-04
2308, 7.6000000000e-04, 3.2000000000e-04, 2.0000000000e-04
2309, 8.0000000000e-04, 3.2000000000e-04, 2.0000000000e-04
2310, 8.4000000000e-04, 3.2000000000e-04, 2.0000000000e-04
2311, 8.8000000000e-04, 3.2000000000e-04, 2.0000000000e-04
2312, 9.2000000000e-04, 3.2000000000e-04, 2.0000000000e-04
2313, 9.6000000000e-04, 3.2000000000e-04, 2.0000000000e-04
2314, 1.0000000000e-03, 3.2000000000e-04, 2.0000000000e-04
2315, 0.0000000000e+00, 3.6000000000e-04, 2.0000000000e-04
2316, 4.0000000000e-05, 3.6000000000e-04, 2.0000000000e-04
2317, 8.0000000000e-05, 3.6000000000e-04, 2.0000000000e-04
2318, 1.2000000000e-04, 3.6000000000e-04, 2.0000000000e-04
2319, 1.6000000000e-04, 3.6000000000e-04, 2.0000000000e-04
2320, 2.0000000000e-04, 3.6000000000e-04, 2.0000000000e-04
2321, 2.4000000000e-04, 3.6000000000e-04, 2.0000000000e-04
2322, 2.8000000000e-04, 3.6000000000e-04, 2.0000000000e-04
2323, 3.2000000000e-04, 3.6000000000e-04, 2.0000000000e-04
2324, 3.6000000000e-04, 3.6000000000e-04, 2.0000000000e-04
2325, 4.0000000000e-04, 3.6000000000e-04, 2.0000000000e-04
2326, 4.4000000000e-04, 3.6000000000e-04, 2.0000000000e-04
2327, 4.8000000000e-04, 3.6000000000e-04, 2.0000000000e-04
2328, 5.2000000000e-04, 3.6000000000e-04, 2.0000000000e-04
2329, 5.6000000000e-04, 3.6000000000e-04, 2.0000000000e-04
2330, 6.0000000000e-04, 3.6000000000e-04, 2.0000000000e-04
2331, 6.4000000000e-04, 3.6000000000e-04, 2.0000000000e-04
2332, 6.8000000000e-04, 3.6000000000e-04, 2.0000000000e-04
2333, 7.2000000000e-04, 3.6000000000e-04, 2.0000000000e-04
2334, 7.6000000000e-04, 3.6000000000e-04, 2.0000000000e-04
2335, 8.0000000000e-04, 3.6000000000e-04, 2.0000000000e-04
2336, 8.4000000000e-04, 3.6000000000e-04, 2.0000000000e-04
2337, 8.8000000000e-04, 3.6000000000e-04, 2.0000000000e-04
2338, 9.2000000000e-04, 3.6000000000e-04, 2.0000000000e-04
2339, 9.6000000000e-04, 3.6000000000e-04, 2.0000000000e-04
2340, 1.0000000000e-03, 3.6000000000e-04, 2.0000000000e-04
2341, 0.0000000000e+00, 4.0000000000e-04, 2.0000000000e-04
2342, 4.0000000000e-05, 4.0000000000e-04, 2.0000000000e-04
2343, 8.0000000000e-05, 4.0000000000e-04, 2.0000000000e-04
2344, 1.2000000000e-04, 4.0000000000e-04, 2.0000000000e-04
2345, 1.6000000000e-04, 4.0000000000e-04, 2.0000000000e-04
2346, 2.0000000000e-04, 4.0000000000e-04, 2.0000000000e-04
2347, 2.4000000000e-04, 4.0000000000e-04, 2.0000000000e-04
2348, 2.8000000000e-04, 4.0000000000e-04, 2.0000000000e-04
2349, 3.2000000000e-04, 4.0000000000e-04, 2.0000000000e-04
2350, 3.6000000000e-04, 4.0000000000e-04, 2.0000000000e-04
2351, 4.0000000000e-04, 4.0000000000e-04, 2.0000000000e-04
2352, 4.4000000000e-04, 4.0000000000e-04, 2.0000000000e-04
2353, 4.8000000000e-04, 4.0000000000e-04, 2.0000000000e-04
2354, 5.2000000000e-04, 4.0000000000e-04, 2.0000000000e-04
2355, 5.6000000000e-04, 4.0000000000e-04, 2.0000000000e-04
2356, 6.0000000000e-04, 4.0000000000e-04, 2.0000000000e-04
2357, 6.4000000000e-04, 4.0000000000e-04, 2.0000000000e-04
2358, 6.8000000000e-04, 4.0000000000e-04, 2.0000000000e-04
2359, 7.2000000000e-04, 4.0000000000e-04, 2.0000000000e-04
2360, 7.6000000000e-04, 4.0000000000e-04, 2.0000000000e-04
2361, 8.0000000000e-04, 4.0000000000e-04, 2.0000000000e-04
2362, 8.4000000000e-04, 4.0000000000e-04, 2.0000000000e-04
2363, 8.8000000000e-04, 4.0000000000e-04, 2.0000000000e-04
2364, 9.2000000000e-04, 4.0000000000e-04, 2.0000000000e-04
2365, 9.6000000000e-04, 4.0000000000e-04, 2.0000000000e-04
2366, 1.0000000000e-03, 4.0000000000e-04, 2.0000000000e-04
2367, 0.0000000000e+00, 4.4000000000e-04, 2.0000000000e-04
2368, 4.0000000000e-05, 4.4000000000e-04, 2.0000000000e-04
2369, 8.0000000000e-05, 4.4000000000e-04, 2.0000000000e-04
2370, 1.2000000000e-04, 4.4000000000e-04, 2.0000000000e-04
2371, 1.6000000000e-04, 4.4000000000e-04, 2.0000000000e-04
2372, 2.0000000000e-04, 4.4000000000e-04, 2.0000000000e-04
2373, 2.4000000000e-04, 4.4000000000e-04, 2.0000000000e-04
2374, 2.8000000000e-04, 4.4000000000e-04, 2.0000000000e-04
2375, 3.2000000000e-04, 4.4000000000e-04, 2.0000000000e-04
2376, 3.6000000000e-04, 4.4000000000e-04, 2.0000000000e-04
2377, 4.0000000000e-04, 4.4000000000e-04, 2.0000000000e-04
2378, 4.4000000000e-04, 4.4000000000e-04, 2.0000000000e-04
2379, 4.8000000000e-04, 4.4000000000e-04, 2.0000000000e-04
2380, 5.2000000000e-04, 4.4000000000e-04, 2.0000000000e-04
2381, 5.6000000000e-04, 4.4000000000e-04, 2.0000000000e-04
2382, 6.0000000000e-04, 4.4000000000e-04, 2.0000000000e-04
2383, 6.4000000000e-04, 4.4000000000e-04, 2.0000000000e-04
2384, 6.8000000000e-04, 4.4000000000e-04, 2.0000000000e-04
2385, 7.2000000000e-04, 4.4000000000e-04, 2.0000000000e-04
2386, 7.6000000000e-04, 4.4000000000e-04, 2.0000000000e-04
2387, 8.0000000000e-04, 4.4000000000e-04, 2.0000000000e-04
2388, 8.4000000000e-04, 4.4000000000e-04, 2.0000000000e-04
2389, 8.8000000000e-04, 4.4000000000e-04, 2.0000000000e-04
2390, 9.2000000000e-04, 4.4000000000e-04, 2.0000000000e-04
2391, 9.6000000000e-04, 4.4000000000e-04, 2.0000000000e-04
2392, 1.0000000000e-03, 4.4000000000e-04, 2.0000000000e-04
2393, 0.0000000000e+00, 4.8000000000e-04, 2.0000000000e-04
2394, 4.0000000000e-05, 4.8000000000e-04, 2.0000000000e-04
2395, 8.0000000000e-05, 4.8000000000e-04, 2.0000000000e-04
2396, 1.2000000000e-04, 4.8000000000e-04, 2.0000000000e-04
2397, 1.6000000000e-04, 4.8000000000e-04, 2.0000000000e-04
2398, 2.0000000000e-04, 4.8000000000e-04, 2.0000000000e-04
2399, 2.4000000000e-04, 4.8000000000e-04, 2.0000000000e-04
2400, 2.8000000000e-04, 4.8000000000e-04, 2.0000000000e-04
2401, 3.2000000000e-04, 4.8000000000e-04, 2.0000000000e-04
2402, 3.6000000000e-04, 4.8000000000e-04, 2.0000000000e-04
2403, 4.0000000000e-04, 4.8000000000e-04, 2.0000000000e-04
2404, 4.4000000000e-04, 4.8000000000e-04, 2.0000000000e-04
2405, 4.8000000000e-04, 4.8000000000e-04, 2.0000000000e-04
2406, 5.2000000000e-04, 4.8000000000e-04, 2.0000000000e-04
2407, 5.6000000000e-04, 4.8000000000e-04, 2.0000000000e-04
2408, 6.0000000000e-04, 4.8000000000e-04, 2.0000000000e-04
2409, 6.4000000000e-04, 4.8000000000e-04, 2.0000000000e-04
2410, 6.8000000000e-04, 4.8000000000e-04, 2.0000000000e-04
2411, 7.2000000000e-04, 4.8000000000e-04, 2.0000000000e-04
2412, 7.6000000000e-04, 4.8000000000e-04, 2.0000000000e-04
2413, 8.0000000000e-04, 4.8000000000e-04, 2.0000000000e-04
2414, 8.4000000000e-04, 4.8000000000e-04, 2.0000000000e-04
2415, 8.8000000000e-04, 4.8000000000e-04, 2.0000000000e-04
2416, 9.2000000000e-04, 4.8000000000e-04, 2.0000000000e-04
2417, 9.6000000000e-04, 4.8000000000e-04, 2.0000000000e-04
2418, 1.0000000000e-03, 4.8000000000e-04, 2.0000000000e-04
2419, 0.0000000000e+00, 5.2000000000e-04, 2.0000000000e-04
2420, 4.0000000000e-05, 5.2000000000e-04, 2.0000000000e-04
2421, 8.0000000000e-05, 5.2000000000e-04, 2.0000000000e-04
2422, 1.2000000000e-04, 5.2000000000e-04, 2.0000000000e-04
2423, 1.6000000000e-04, 5.2000000000e-04, 2.0000000000e-04
2424, 2.0000000000e-04, 5.2000000000e-04, 2.0000000000e-04
2425, 2.4000000000e-04, 5.2000000000e-04, 2.0000000000e-04
2426, 2.8000000000e-04, 5.2000000000e-04, 2.0000000000e-04
2427, 3.2000000000e-04, 5.2000000000e-04, 2.0000000000e-04
2428, 3.6000000000e-04, 5.2000000000e-04, 2.0000000000e-04
2429, 4.0000000000e-04, 5.2000000000e-04, 2.0000000000e-04
2430, 4.4000000000e-04, 5.2000000000e-04, 2.0000000000e-04
2431, 4.8000000000e-04, 5.2000000000e-04, 2.0000000000e-04
2432, 5.2000000000e-04, 5.2000000000e-04, 2.0000000000e-04
2433, 5.6000000000e-04, 5.2000000000e-04, 2.0000000000e-04
2434, 6.0000000000e-04, 5.2000000000e-04, 2.0000000000e-04
2435, 6.4000000000e-04, 5.2000000000e-04, 2.0000000000e-04
2436, 6.8000000000e-04, 5.2000000000e-04, 2.0000000000e-04
2437, 7.2000000000e-04, 5.2000000000e-04, 2.0000000000e-04
2438, 7.6000000000e-04, 5.2000000000e-04, 2.0000000000e-04
2439, 8.0000000000e-04, 5.2000000000e-04, 2.0000000000e-04
2440, 8.4000000000e-04, 5.2000000000e-04, 2.0000000000e-04
2441, 8.8000000000e-04, 5.2000000000e-04, 2.0000000000e-04
2442, 9.2000000000e-04, 5.2000000000e-04, 2.0000000000e-04
2443, 9.6000000000e-04, 5.2000000000e-04, 2.0000000000e-04
2444, 1.0000000000e-03, 5.2000000000e-04, 2.0000000000e-04
2445, 0.0000000000e+00, 5.6000000000e-04, 2.0000000000e-04
2446, 4.0000000000e-05, 5.6000000000e-04, 2.0000000000e-04
2447, 8.0000000000e-05, 5.6000000000e-04, 2.0000000000e-04
2448, 1.2000000000e-04, 5.6000000000e-04, 2.0000000000e-04
2449, 1.6000000000e-04, 5.6000000000e-04, 2.0000000000e-04
2450, 2.0000000000e-04, 5.6000000000e-04, 2.0000000000e-04
2451, 2.4000000000e-04, 5.6000000000e-04, 2.0000000000e-04
2452, 2.8000000000e-04, 5.6000000000e-04, 2.0000000000e-04
2453, 3.2000000000e-04, 5.6000000000e-04, 2.0000000000e-04
2454, 3.6000000000e-04, 5.6000000000e-04, 2.0000000000e-04
2455, 4.0000000000e-04, 5.6000000000e-04, 2.0000000000e-04
2456, 4.4000000000e-04, 5.6000000000e-04, 2.0000000000e-04
2457, 4.8000000000e-04, 5.6000000000e-04, 2.0000000000e-04
2458, 5.2000000000e-04, 5.6000000000e-04, 2.0000000000e-04
2459, 5.6000000000e-04, 5.6000000000e-04, 2.0000000000e-04
2460, 6.0000000000e-04, 5.6000000000e-04, 2.0000000000e-04
2461, 6.4000000000e-04, 5.6000000000e-04, 2.0000000000e-04
2462, 6.8000000000e-04, 5.6000000000e-04, 2.0000000000e-04
2463, 7.2000000000e-04, 5.6000000000e-04, 2.0000000000e-04
2464, 7.6000000000e-04, 5.6000000000e-04, 2.0000000000e-04
2465, 8.0000000000e-04, 5.6000000000e-04, 2.0000000000e-04
2466, 8.4000000000e-04, 5.6000000000e-04, 2.0000000000e-04
2467, 8.8000000000e-04, 5.6000000000e-04, 2.0000000000e-04
2468, 9.2000000000e-04, 5.6000000000e-04, 2.0000000000e-04
2469, 9.6000000000e-04, 5.6000000000e-04, 2.0000000000e-04
2470, 1.0000000000e-03, 5.6000000000e-04, 2.0000000000e-04
2471, 0.0000000000e+00, 6.0000000000e-04, 2.0000000000e-04
2472, 4.0000000000e-05, 6.0000000000e-04, 2.0000000000e-04
2473, 8.0000000000e-05, 6.0000000000e-04, 2.0000000000e-04
2474, 1.2000000000e-04, 6.0000000000e-04, 2.0000000000e-04
2475, 1.6000000000e-04, 6.0000000000e-04, 2.0000000000e-04
2476, 2.0000000000e-04, 6.0000000000e-04, 2.0000000000e-04
2477, 2.4000000000e-04, 6.0000000000e-04, 2.0000000000e-04
2478, 2.8000000000e-04, 6.0000000000e-04, 2.0000000000e-04
2479, 3.2000000000e-04, 6.0000000000e-04, 2.0000000000e-04
2480, 3.6000000000e-04, 6.0000000000e-04, 2.0000000000e-04
2481, 4.0000000000e-04, 6.0000000000e-04, 2.0000000000e-04
2482, 4.4000000000e-04, 6.0000000000e-04, 2.0000000000e-04
2483, 4.8000000000e-04, 6.0000000000e-04, 2.0000000000e-04
2484, 5.2000000000e-04, 6.0000000000e-04, 2.0000000000e-04
2485, 5.6000000000e-04, 6.0000000000e-04, 2.0000000000e-04
2486, 6.0000000000e-04, 6.0000000000e-04, 2.0000000000e-04
2487, 6.4000000000e-04, 6.0000000000e-04, 2.0000000000e-04
2488, 6.8000000000e-04, 6.0000000000e-04, 2.0000000000e-04
2489, 7.2000000000e-04, 6.0000000000e-04, 2.0000000000e-04
2490, 7.6000000000e-04, 6.0000000000e-04, 2.0000000000e-04
2491, 8.0000000000e-04, 6.0000000000e-04, 2.0000000000e-04
2492, 8.4000000000e-04, 6.0000000000e-04, 2.0000000000e-04
2493, 8.8000000000e-04, 6.0000000000e-04, 2.0000000000e-04
2494, 9.2000000000e-04, 6.0000000000e-04, 2.0000000000e-04
2495, 9.6000000000e-04, 6.0000000000e-04, 2.0000000000e-04
2496, 1.0000000000e-03, 6.0000000000e-04, 2.0000000000e-04
2497, 0.0000000000e+00, 0.0000000000e+00, 2.4000000000e-04
2498, 4.0000000000e-05, 0.0000000000e+00, 2.4000000000e-04
2499, 8.0000000000e-05, 0.0000000000e+00, 2.4000000000e-04
2500, 1.2000000000e-04, 0.0000000000e+00, 2.4000000000e-04
2501, 1.6000000000e-04, 0.0000000000e+00, 2.4000000000e-04
2502, 2.0000000000e-04, 0.0000000000e+00, 2.4000000000e-04
2503, 2.4000000000e-04, 0.0000000000e+00, 2.4000000000e-04
2504, 2.8000000000e-04, 0.0000000000e+00, 2.4000000000e-04
2505, 3.2000000000e-04, 0.0000000000e+00, 2.4000000000e-04
2506, 3.6000000000e-04, 0.0000000000e+00, 2.4000000000e-04
2507, 4.0000000000e-04, 0.0000000000e+00, 2.4000000000e-04
2508, 4.4000000000e-04, 0.0000000000e+00, 2.4000000000e-04
2509, 4.8000000000e-04, 0.0000000000e+00, 2.4000000000e-04
2510, 5.2000000000e-04, 0.0000000000e+00, 2.4000000000e-04
2511, 5.6000000000e-04, 0.0000000000e+00, 2.4000000000e-04
2512, 6.0000000000e-04, 0.0000000000e+00, 2.4000000000e-04
2513, 6.4000000000e-04, 0.0000000000e+00, 2.4000000000e-04
2514, 6.8000000000e-04, 0.0000000000e+00, 2.4000000000e-04
2515, 7.2000000000e-04, 0.0000000000e+00, 2.4000000000e-04
2516, 7.6000000000e-04, 0.0000000000e+00, 2.4000000000e-04
2517, 8.0000000000e-04, 0.0000000000e+00, 2.4000000000e-04
2518, 8.4000000000e-04, 0.0000000000e+00, 2.4000000000e-04
2519, 8.8000000000e-04, 0.0000000000e+00, 2.4000000000e-04
2520, 9.2000000000e-04, 0.0000000000e+00, 2.4000000000e-04
2521, 9.6000000000e-04, 0.0000000000e+00, 2.4000000000e-04
2522, 1.0000000000e-03, 0.0000000000e+00, 2.4000000000e-04
2523, 0.0000000000e+00, 4.0000000000e-05, 2.4000000000e-04
2524, 4.0000000000e-05, 4.0000000000e-05, 2.4000000000e-04
2525, 8.0000000000e-05, 4.0000000000e-05, 2.4000000000e-04
2526, 1.2000000000e-04, 4.0000000000e-05, 2.4000000000e-04
2527, 1.6000000000e-04, 4.0000000000e-05, 2.4000000000e-04
2528, 2.0000000000e-04, 4.0000000000e-05, 2.4000000000e-04
2529, 2.4000000000e-04, 4.0000000000e-05, 2.4000000000e-04
2530, 2.8000000000e-04, 4.0000000000e-05, 2.4000000000e-04
2531, 3.2000000000e-04, 4.0000000000e-05, 2.4000000000e-04
2532, 3.6000000000e-04, 4.0000000000e-05, 2.4000000000e-04
2533, 4.0000000000e-04, 4.0000000000e-05, 2.4000000000e-04
2534, 4.4000000000e-04, 4.0000000000e-05, 2.4000000000e-04
2535, 4.8000000000e-04, 4.0000000000e-05, 2.4000000000e-04
2536, 5.2000000000e-04, 4.0000000000e-05, 2.4000000000e-04
2537, 5.6000000000e-04, 4.0000000000e-05, 2.4000000000e-04
2538, 6.0000000000e-04, 4.0000000000e-05, 2.4000000000e-04
2539, 6.4000000000e-04, 4.0000000000e-05, 2.4000000000e-04
2540, 6.8000000000e-04, 4.0000000000e-05, 2.4000000000e-04
2541, 7.2000000000e-04, 4.0000000000e-05, 2.4000000000e-04
2542, 7.6000000000e-04, 4.0000000000e-05, 2.4000000000e-04
2543, 8.0000000000e-04, 4.0000000000e-05, 2.4000000000e-04
2544, 8.4000000000e-04, 4.0000000000e-05, 2.4000000000e-04
2545, 8.8000000000e-04, 4.0000000000e-05, 2.4000000000e-04
2546, 9.2000000000e-04, 4.0000000000e-05, 2.4000000000e-04
2547, 9.6000000000e-04, 4.0000000000e-05, 2.4000000000e-04
2548, 1.0000000000e-03, 4.0000000000e-05, 2.4000000000e-04
2549, 0.0000000000e+00, 8.0000000000e-05, 2.4000000000e-04
2550, 4.0000000000e-05, 8.0000000000e-05, 2.4000000000e-04
2551, 8.0000000000e-05, 8.0000000000e-05, 2.4000000000e-04
2552, 1.2000000000e-04, 8.0000000000e-05, 2.4000000000e-04
2553, 1.6000000000e-04, 8.0000000000e-05, 2.4000000000e-04
2554, 2.0000000000e-04, 8.0000000000e-05, 2.4000000000e-04
2555, 2.4000000000e-04, 8.0000000000e-05, 2.4000000000e-04
2556, 2.8000000000e-04, 8.0000000000e-05, 2.4000000000e-04
2557, 3.2000000000e-04, 8.0000000000e-05, 2.4000000000e-04
2558, 3.6000000000e-04, 8.0000000000e-05, 2.4000000000e-04
2559, 4.0000000000e-04, 8.0000000000e-05, 2.4000000000e-04
2560, 4.4000000000e-04, 8.0000000000e-05, 2.4000000000e-04
2561, 4.8000000000e-04, 8.0000000000e-05, 2.4000000000e-04
2562, 5.2000000000e-04, 8.0000000000e-05, 2.4000000000e-04
2563, 5.6000000000e-04, 8.0000000000e-05, 2.4000000000e-04
2564, 6.0000000000e-04, 8.0000000000e-05, 2.4000000000e-04
2565, 6.4000000000e-04, 8.0000000000e-05, 2.4000000000e-04
2566, 6.8000000000e-04, 8.0000000000e-05, 2.4000000000e-04
2567, 7.2000000000e-04, 8.0000000000e-05, 2.4000000000e-04
2568, 7.6000000000e-04, 8.0000000000e-05, 2.4000000000e-04
2569, 8.0000000000e-04, 8.0000000000e-05, 2.4000000000e-04
2570, 8.4000000000e-04, 8.0000000000e-05, 2.4000000000e-04
2571, 8.8000000000e-04, 8.0000000000e-05, 2.4000000000e-04
2572, 9.2000000000e-04, 8.0000000000e-05, 2.4000000000e-04
2573, 9.6000000000e-04, 8.0000000000e-05, 2.4000000000e-04
2574, 1.0000000000e-03, 8.0000000000e-05, 2.4000000000e-04
2575, 0.0000000000e+00, 1.2000000000e-04, 2.4000000000e-04
2576, 4.0000000000e-05, 1.2000000000e-04, 2.4000000000e-04
2577, 8.0000000000e-05, 1.2000000000e-04, 2.4000000000e-04
2578, 1.2000000000e-04, 1.2000000000e-04, 2.4000000000e-04
2579, 1.6000000000e-04, 1.2000000000e-04, 2.4000000000e-04
2580, 2.0000000000e-04, 1.2000000000e-04, 2.4000000000e-04
2581, 2.4000000000e-04, 1.2000000000e-04, 2.4000000000e-04
2582, 2.8000000000e-04, 1.2000000000e-04, 2.4000000000e-04
2583, 3.2000000000e-04, 1.2000000000e-04, 2.4000000000e-04
2584, 3.6000000000e-04, 1.2000000000e-04, 2.4000000000e-04
2585, 4.0000000000e-04, 1.2000000000e-04, 2.4000000000e-04
2586, 4.4000000000e-04, 1.2000000000e-04, 2.4000000000e-04
2587, 4.8000000000e-04, 1.2000000000e-04, 2.4000000000e-04
2588, 5.2000000000e-04, 1.2000000000e-04, 2.4000000000e-04
2589, 5.6000000000e-04, 1.2000000000e-04, 2.4000000000e-04
2590, 6.0000000000e-04, 1.2000000000e-04, 2.4000000000e-04
2591, 6.4000000000e-04, 1.2000000000e-04, 2.4000000000e-04
2592, 6.8000000000e-04, 1.2000000000e-04, 2.4000000000e-04
2593, 7.2000000000e-04, 1.2000000000e-04, 2.4000000000e-04
2594, 7.6000000000e-04, 1.2000000000e-04, 2.4000000000e-04
2595, 8.0000000000e-04, 1.2000000000e-04, 2.4000000000e-04
2596, 8.4000000000e-04, 1.2000000000e-04, 2.4000000000e-04
2597, 8.8000000000e-04, 1.2000000000e-04, 2.4000000000e-04
2598, 9.2000000000e-04, 1.2000000000e-04, 2.4000000000e-04
2599, 9.6000000000e-04, 1.2000000000e-04, 2.4000000000e-04
2600, 1.0000000000e-03, 1.2000000000e-04, 2.4000000000e-04
2601, 0.0000000000e+00, 1.6000000000e-04, 2.4000000000e-04
2602, 4.0000000000e-05, 1.6000000000e-04, 2.4000000000e-04
2603, 8.0000000000e-05, 1.6000000000e-04, 2.4000000000e-04
2604, 1.2000000000e-04, 1.6000000000e-04, 2.4000000000e-04
2605, 1.6000000000e-04, 1.6000000000e-04, 2.4000000000e-04
2606, 2.0000000000e-04, 1.6000000000e-04, 2.4000000000e-04
2607, 2.4000000000e-04, 1.6000000000e-04, 2.4000000000e-04
2608, 2.8000000000e-04, 1.6000000000e-04, 2.4000000000e-04
2609, 3.2000000000e-04, 1.6000000000e-04, 2.4000000000e-04
2610, 3.6000000000e-04, 1.6000000000e-04, 2.4000000000e-04
2611, 4.0000000000e-04, 1.6000000000e-04, 2.4000000000e-04
2612, 4.4000000000e-04, 1.6000000000e-04, 2.4000000000e-04
2613, 4.8000000000e-04, 1.6000000000e-04, 2.4000000000e-04
2614, 5.2000000000e-04, 1.6000000000e-04, 2.4000000000e-04
2615, 5.6000000000e-04, 1.6000000000e-04, 2.4000000000e-04
2616, 6.0000000000e-04, 1.6000000000e-04, 2.4000000000e-04
2617, 6.4000000000e-04, 1.6000000000e-04, 2.4000000000e-04
2618, 6.8000000000e-04, 1.6000000000e-04, 2.4000000000e-04
2619, 7.2000000000e-04, 1.6000000000e-04, 2.4000000000e-04
2620, 7.6000000000e-04, 1.6000000000e-04, 2.4000000000e-04
2621, 8.0000000000e-04, 1.6000000000e-04, 2.4000000000e-04
2622, 8.4000000000e-04, 1.6000000000e-04, 2.4000000000e-04
2623, 8.8000000000e-04, 1.6000000000e-04, 2.4000000000e-04
2624, 9.2000000000e-04, 1.6000000000e-04, 2.4000000000e-04
2625, 9.6000000000e-04, 1.6000000000e-04, 2.4000000000e-04
2626, 1.0000000000e-03, 1.6000000000e-04, 2.4000000000e-04
2627, 0.0000000000e+00, 2.0000000000e-04, 2.4000000000e-04
2628, 4.0000000000e-05, 2.0000000000e-04, 2.4000000000e-04
2629, 8.0000000000e-05, 2.0000000000e-04, 2.4000000000e-04
2630, 1.2000000000e-04, 2.0000000000e-04, 2.4000000000e-04
2631, 1.6000000000e-04, 2.0000000000e-04, 2.4000000000e-04
2632, 2.0000000000e-04, 2.0000000000e-04, 2.4000000000e-04
2633, 2.4000000000e-04, 2.0000000000e-04, 2.4000000000e-04
2634, 2.8000000000e-04, 2.0000000000e-04, 2.4000000000e-04
2635, 3.2000000000e-04, 2.0000000000e-04, 2.4000000000e-04
2636, 3.6000000000e-04, 2.0000000000e-04, 2.4000000000e-04
2637, 4.0000000000e-04, 2.0000000000e-04, 2.4000000000e-04
2638, 4.4000000000e-04, 2.0000000000e-04, 2.4000000000e-04
2639, 4.8000000000e-04, 2.0000000000e-04, 2.4000000000e-04
2640, 5.2000000000e-04, 2.0000000000e-04, 2.4000000000e-04
2641, 5.6000000000e-04, 2.0000000000e-04, 2.4000000000e-04
2642, 6.0000000000e-04, 2.0000000000e-04, 2.4000000000e-04
2643, 6.4000000000e-04, 2.0000000000e-04, 2.4000000000e-04
2644, 6.8000000000e-04, 2.0000000000e-04, 2.4000000000e-04
2645, 7.2000000000e-04, 2.0000000000e-04, 2.4000000000e-04
2646, 7.6000000000e-04, 2.0000000000e-04, 2.4000000000e-04
2647, 8.0000000000e-04, 2.0000000000e-04, 2.4000000000e-04
2648, 8.4000000000e-04, 2.0000000000e-04, 2.4000000000e-04
2649, 8.8000000000e-04, 2.0000000000e-04, 2.4000000000e-04
2650, 9.2000000000e-04, 2.0000000000e-04, 2.4000000000e-04
2651, 9.6000000000e-04, 2.0000000000e-04, 2.4000000000e-04
2652, 1.0000000000e-03, 2.0000000000e-04, 2.4000000000e-04
2653, 0.0000000000e+00, 2.4000000000e-04, 2.4000000000e-04
2654, 4.0000000000e-05, 2.4000000000e-04, 2.4000000000e-04
2655, 8.0000000000e-05, 2.4000000000e-04, 2.4000000000e-04
2656, 1.2000000000e-04, 2.4000000000e-04, 2.4000000000e-04
2657, 1.6000000000e-04, 2.4000000000e-04, 2.4000000000e-04
2658, 2.0000000000e-04, 2.4000000000e-04, 2.4000000000e-04
2659, 2.4000000000e-04, 2.4000000000e-04, 2.4000000000e-04
2660, 2.8000000000e-04, 2.4000000000e-04, 2.4000000000e-04
2661, 3.2000000000e-04, 2.4000000000e-04, 2.4000000000e-04
2662, 3.6000000000e-04, 2.4000000000e-04, 2.4000000000e-04
2663, 4.0000000000e-04, 2.4000000000e-04, 2.4000000000e-04
2664, 4.4000000000e-04, 2.4000000000e-04, 2.4000000000e-04
2665, 4.8000000000e-04, 2.4000000000e-04, 2.4000000000e-04
2666, 5.2000000000e-04, 2.4000000000e-04, 2.4000000000e-04
2667, 5.6000000000e-04, 2.4000000000e-04, 2.4000000000e-04
2668, 6.0000000000e-04, 2.4000000000e-04, 2.4000000000e-04
2669, 6.4000000000e-04, 2.4000000000e-04, 2.4000000000e-04
2670, 6.8000000000e-04, 2.4000000000e-04, 2.4000000000e-04
2671, 7.2000000000e-04, 2.4000000000e-04, 2.4000000000e-04
2672, 7.6000000000e-04, 2.4000000000e-04, 2.4000000000e-04
2673, 8.0000000000e-04, 2.4000000000e-04, 2.4000000000e-04
2674, 8.4000000000e-04, 2.4000000000e-04, 2.4000000000e-04
2675, 8.8000000000e-04, 2.4000000000e-04, 2.4000000000e-04
2676, 9.2000000000e-04, 2.4000000000e-04, 2.4000000000e-04
2677, 9.6000000000e-04, 2.4000000000e-04, 2.4000000000e-04
2678, 1.0000000000e-03, 2.4000000000e-04, 2.4000000000e-04
2679, 0.0000000000e+00, 2.8000000000e-04, 2.4000000000e-04
2680, 4.0000000000e-05, 2.8000000000e-04, 2.4000000000e-04
2681, 8.0000000000e-05, 2.8000000000e-04, 2.4000000000e-04
2682, 1.2000000000e-04, 2.8000000000e-04, 2.4000000000e-04
2683, 1.6000000000e-04, 2.8000000000e-04, 2.4000000000e-04
2684, 2.0000000000e-04, 2.8000000000e-04, 2.4000000000e-04
2685, 2.4000000000e-04, 2.8000000000e-04, 2.4000000000e-04
2686, 2.8000000000e-04, 2.8000000000e-04, 2.4000000000e-04
2687, 3.2000000000e-04, 2.8000000000e-04, 2.4000000000e-04
2688, 3.6000000000e-04, 2.8000000000e-04, 2.4000000000e-04
2689, 4.0000000000e-04, 2.8000000000e-04, 2.4000000000e-04
2690, 4.4000000000e-04, 2.8000000000e-04, 2.4000000000e-04
2691, 4.8000000000e-04, 2.8000000000e-04, 2.4000000000e-04
2692, 5.2000000000e-04, 2.8000000000e-04, 2.4000000000e-04
2693, 5.6000000000e-04, 2.8000000000e-04, 2.4000000000e-04
2694, 6.0000000000e-04, 2.8000000000e-04, 2.4000000000e-04
2695, 6.4000000000e-04, 2.8000000000e-04, 2.4000000000e-04
2696, 6.8000000000e-04, 2.8000000000e-04, 2.4000000000e-04
2697, 7.2000000000e-04, 2.8000000000e-04, 2.4000000000e-04
2698, 7.6000000000e-04, 2.8000000000e-04, 2.4000000000e-04
2699, 8.0000000000e-04, 2.8000000000e-04, 2.4000000000e-04
2700, 8.4000000000e-04, 2.8000000000e-04, 2.4000000000e-04
2701, 8.8000000000e-04, 2.8000000000e-04, 2.4000000000e-04
2702, 9.2000000000e-04, 2.8000000000e-04, 2.4000000000e-04
2703, 9.6000000000e-04, 2.8000000000e-04, 2.4000000000e-04
2704, 1.0000000000e-03, 2.8000000000e-04, 2.4000000000e-04
2705, 0.0000000000e+00, 3.2000000000e-04, 2.4000000000e-04
2706, 4.0000000000e-05, 3.2000000000e-04, 2.4000000000e-04
2707, 8.0000000000e-05, 3.2000000000e-04, 2.4000000000e-04
2708, 1.2000000000e-04, 3.2000000000e-04, 2.4000000000e-04
2709, 1.6000000000e-04, 3.2000000000e-04, 2.4000000000e-04
2710, 2.0000000000e-04, 3.2000000000e-04, 2.4000000000e-04
2711, 2.4000000000e-04, 3.2000000000e-04, 2.4000000000e-04
2712, 2.8000000000e-04, 3.2000000000e-04, 2.4000000000e-04
2713, 3.2000000000e-04, 3.2000000000e-04, 2.4000000000e-04
2714, 3.6000000000e-04, 3.2000000000e-04, 2.4000000000e-04
2715, 4.0000000000e-04, 3.2000000000e-04, 2.4000000000e-04
2716, 4.4000000000e-04, 3.2000000000e-04, 2.4000000000e-04
2717, 4.8000000000e-04, 3.2000000000e-04, 2.4000000000e-04
2718, 5.2000000000e-04, 3.2000000000e-04, 2.4000000000e-04
2719, 5.6000000000e-04, 3.2000000000e-04, 2.4000000000e-04
2720, 6.0000000000e-04, 3.2000000000e-04, 2.4000000000e-04
2721, 6.4000000000e-04, 3.2000000000e-04, 2.4000000000e-04
2722, 6.8000000000e-04, 3.2000000000e-04, 2.4000000000e-04
2723, 7.2000000000e-04, 3.2000000000e-04, 2.4000000000e-04
2724, 7.6000000000e-04, 3.2000000000e-04, 2.4000000000e-04
2725, 8.0000000000e-04, 3.2000000000e-04, 2.4000000000e-04
2726, 8.4000000000e-04, 3.2000000000e-04, 2.4000000000e-04
2727, 8.8000000000e-04, 3.2000000000e-04, 2.4000000000e-04
2728, 9.2000000000e-04, 3.2000000000e-04, 2.4000000000e-04
2729, 9.6000000000e-04, 3.2000000000e-04, 2.4000000000e-04
2730, 1.0000000000e-03, 3.2000000000e-04, 2.4000000000e-04
2731, 0.0000000000e+00, 3.6000000000e-04, 2.4000000000e-04
2732, 4.0000000000e-05, 3.6000000000e-04, 2.4000000000e-04
2733, 8.0000000000e-05, 3.6000000000e-04, 2.4000000000e-04
2734, 1.2000000000e-04, 3.6000000000e-04, 2.4000000000e-04
2735, 1.6000000000e-04, 3.6000000000e-04, 2.4000000000e-04
2736, 2.0000000000e-04, 3.6000000000e-04, 2.4000000000e-04
2737, 2.4000000000e-04, 3.6000000000e-04, 2.4000000000e-04
2738, 2.8000000000e-04, 3.6000000000e-04, 2.4000000000e-04
2739, 3.2000000000e-04, 3.6000000000e-04, 2.4000000000e-04
2740, 3.6000000000e-04, 3.6000000000e-04, 2.4000000000e-04
2741, 4.0000000000e-04, 3.6000000000e-04, 2.4000000000e-04
2742, 4.4000000000e-04, 3.6000000000e-04, 2.4000000000e-04
2743, 4.8000000000e-04, 3.6000000000e-04, 2.4000000000e-04
2744, 5.2000000000e-04, 3.6000000000e-04, 2.4000000000e-04
2745, 5.6000000000e-04, 3.6000000000e-04, 2.4000000000e-04
2746, 6.0000000000e-04, 3.6000000000e-04, 2.4000000000e-04
2747, 6.4000000000e-04, 3.6000000000e-04, 2.4000000000e-04
2748, 6.8000000000e-04, 3.6000000000e-04, 2.4000000000e-04
2749, 7.2000000000e-04, 3.6000000000e-04, 2.4000000000e-04
2750, 7.6000000000e-04, 3.6000000000e-04, 2.4000000000e-04
2751, 8.0000000000e-04, 3.6000000000e-04, 2.4000000000e-04
2752, 8.4000000000e-04, 3.6000000000e-04, 2.4000000000e-04
2753, 8.8000000000e-04, 3.6000000000e-04, 2.4000000000e-04
2754, 9.2000000000e-04, 3.6000000000e-04, 2.4000000000e-04
2755, 9.6000000000e-04, 3.6000000000e-04, 2.4000000000e-04
2756, 1.0000000000e-03, 3.6000000000e-04, 2.4000000000e-04
2757, 0.0000000000e+00, 4.0000000000e-04, 2.4000000000e-04
2758, 4.0000000000e-05, 4.0000000000e-04, 2.4000000000e-04
2759, 8.0000000000e-05, 4.0000000000e-04, 2.4000000000e-04
2760, 1.2000000000e-04, 4.0000000000e-04, 2.4000000000e-04
2761, 1.6000000000e-04, 4.0000000000e-04, 2.4000000000e-04
2762, 2.0000000000e-04, 4.0000000000e-04, 2.4000000000e-04
2763, 2.4000000000e-04, 4.0000000000e-04, 2.4000000000e-04
2764, 2.8000000000e-04, 4.0000000000e-04, 2.4000000000e-04
2765, 3.2000000000e-04, 4.0000000000e-04, 2.4000000000e-04
2766, 3.6000000000e-04, 4.0000000000e-04, 2.4000000000e-04
2767, 4.0000000000e-04, 4.0000000000e-04, 2.4000000000e-04
2768, 4.4000000000e-04, 4.0000000000e-04, 2.4000000000e-04
2769, 4.8000000000e-04, 4.0000000000e-04, 2.4000000000e-04
2770, 5.2000000000e-04, 4.0000000000e-04, 2.4000000000e-04
2771, 5.6000000000e-04, 4.0000000000e-04, 2.4000000000e-04
2772, 6.0000000000e-04, 4.0000000000e-04, 2.4000000000e-04
2773, 6.4000000000e-04, 4.0000000000e-04, 2.4000000000e-04
2774, 6.8000000000e-04, 4.0000000000e-04, 2.4000000000e-04
2775, 7.2000000000e-04, 4.0000000000e-04, 2.4000000000e-04
2776, 7.6000000000e-04, 4.0000000000e-04, 2.4000000000e-04
2777, 8.0000000000e-04, 4.0000000000e-04, 2.4000000000e-04
2778, 8.4000000000e-04, 4.0000000000e-04, 2.4000000000e-04
2779, 8.8000000000e-04, 4.0000000000e-04, 2.4000000000e-04
2780, 9.2000000000e-04, 4.0000000000e-04, 2.4000000000e-04
2781, 9.6000000000e-04, 4.0000000000e-04, 2.4000000000e-04
2782, 1.0000000000e-03, 4.0000000000e-04, 2.4000000000e-04
2783, 0.0000000000e+00, 4.4000000000e-04, 2.4000000000e-04
2784, 4.0000000000e-05, 4.4000000000e-04, 2.4000000000e-04
2785, 8.0000000000e-05, 4.4000000000e-04, 2.4000000000e-04
2786, 1.2000000000e-04, 4.4000000000e-04, 2.4000000000e-04
2787, 1.6000000000e-04, 4.4000000000e-04, 2.4000000000e-04
2788, 2.0000000000e-04, 4.4000000000e-04, 2.4000000000e-04
2789, 2.4000000000e-04, 4.4000000000e-04, 2.4000000000e-04
2790, 2.8000000000e-04, 4.4000000000e-04, 2.4000000000e-04
2791, 3.2000000000e-04, 4.4000000000e-04, 2.4000000000e-04
2792, 3.6000000000e-04, 4.4000000000e-04, 2.4000000000e-04
2793, 4.0000000000e-04, 4.4000000000e-04, 2.4000000000e-04
2794, 4.4000000000e-04, 4.4000000000e-04, 2.4000000000e-04
2795, 4.8000000000e-04, 4.4000000000e-04, 2.4000000000e-04
2796, 5.2000000000e-04, 4.4000000000e-04, 2.4000000000e-04
2797, 5.6000000000e-04, 4.4000000000e-04, 2.4000000000e-04
2798, 6.0000000000e-04, 4.4000000000e-04, 2.4000000000e-04
2799, 6.4000000000e-04, 4.4000000000e-04, 2.4000000000e-04
2800, 6.8000000000e-04, 4.4000000000e-04, 2.4000000000e-04
2801, 7.2000000000e-04, 4.4000000000e-04, 2.4000000000e-04
2802, 7.6000000000e-04, 4.4000000000e-04, 2.4000000000e-04
2803, 8.0000000000e-04, 4.4000000000e-04, 2.4000000000e-04
2804, 8.4000000000e-04, 4.4000000000e-04, 2.4000000000e-04
2805, 8.8000000000e-04, 4.4000000000e-04, 2.4000000000e-04
2806, 9.2000000000e-04, 4.4000000000e-04, 2.4000000000e-04
2807, 9.6000000000e-04, 4.4000000000e-04, 2.4000000000e-04
2808, 1.0000000000e-03, 4.4000000000e-04, 2.4000000000e-04
2809, 0.0000000000e+00, 4.8000000000e-04, 2.4000000000e-04
2810, 4.0000000000e-05, 4.8000000000e-04, 2.4000000000e-04
2811, 8.0000000000e-05, 4.8000000000e-04, 2.4000000000e-04
2812, 1.2000000000e-04, 4.8000000000e-04, 2.4000000000e-04
2813, 1.6000000000e-04, 4.8000000000e-04, 2.4000000000e-04
2814, 2.0000000000e-04, 4.8000000000e-04, 2.4000000000e-04
2815, 2.4000000000e-04, 4.8000000000e-04, 2.4000000000e-04
2816, 2.8000000000e-04, 4.8000000000e-04, 2.4000000000e-04
2817, 3.2000000000e-04, 4.8000000000e-04, 2.4000000000e-04
2818, 3.6000000000e-04, 4.8000000000e-04, 2.4000000000e-04
2819, 4.0000000000e-04, 4.8000000000e-04, 2.4000000000e-04
2820, 4.4000000000e-04, 4.8000000000e-04, 2.4000000000e-04
2821, 4.8000000000e-04, 4.8000000000e-04, 2.4000000000e-04
2822, 5.2000000000e-04, 4.8000000000e-04, 2.4000000000e-04
2823, 5.6000000000e-04, 4.8000000000e-04, 2.4000000000e-04
2824, 6.0000000000e-04, 4.8000000000e-04, 2.4000000000e-04
2825, 6.4000000000e-04, 4.8000000000e-04, 2.4000000000e-04
2826, 6.8000000000e-04, 4.8000000000e-04, 2.4000000000e-04
2827, 7.2000000000e-04, 4.8000000000e-04, 2.4000000000e-04
2828, 7.6000000000e-04, 4.8000000000e-04, 2.4000000000e-04
2829, 8.0000000000e-04, 4.8000000000e-04, 2.4000000000e-04
2830, 8.4000000000e-04, 4.8000000000e-04, 2.4000000000e-04
2831, 8.8000000000e-04, 4.8000000000e-04, 2.4000000000e-04
2832, 9.2000000000e-04, 4.8000000000e-04, 2.4000000000e-04
2833, 9.6000000000e-04, 4.8000000000e-04, 2.4000000000e-04
2834, 1.0000000000e-03, 4.8000000000e-04, 2.4000000000e-04
2835, 0.0000000000e+00, 5.2000000000e-04, 2.4000000000e-04
2836, 4.0000000000e-05, 5.2000000000e-04, 2.4000000000e-04
2837, 8.0000000000e-05, 5.2000000000e-04, 2.4000000000e-04
2838, 1.2000000000e-04, 5.2000000000e-04, 2.4000000000e-04
2839, 1.6000000000e-04, 5.2000000000e-04, 2.4000000000e-04
2840, 2.0000000000e-04, 5.2000000000e-04, 2.4000000000e-04
2841, 2.4000000000e-04, 5.2000000000e-04, 2.4000000000e-04
2842, 2.8000000000e-04, 5.2000000000e-04, 2.4000000000e-04
2843, 3.2000000000e-04, 5.2000000000e-04, 2.4000000000e-04
2844, 3.6000000000e-04, 5.2000000000e-04, 2.4000000000e-04
2845, 4.0000000000e-04, 5.2000000000e-04, 2.4000000000e-04
2846, 4.4000000000e-04, 5.2000000000e-04, 2.4000000000e-04
2847, 4.8000000000e-04, 5.2000000000e-04, 2.4000000000e-04
2848, 5.2000000000e-04, 5.2000000000e-04, 2.4000000000e-04
2849, 5.6000000000e-04, 5.2000000000e-04, 2.4000000000e-04
2850, 6.0000000000e-04, 5.2000000000e-04, 2.4000000000e-04
2851, 6.4000000000e-04, 5.2000000000e-04, 2.4000000000e-04
2852, 6.8000000000e-04, 5.2000000000e-04, 2.4000000000e-04
2853, 7.2000000000e-04, 5.2000000000e-04, 2.4000000000e-04
2854, 7.6000000000e-04, 5.2000000000e-04, 2.4000000000e-04
2855, 8.0000000000e-04, 5.2000000000e-04, 2.4000000000e-04
2856, 8.4000000000e-04, 5.2000000000e-04, 2.4000000000e-04
2857, 8.8000000000e-04, 5.2000000000e-04, 2.4000000000e-04
2858, 9.2000000000e-04, 5.2000000000e-04, 2.4000000000e-04
2859, 9.6000000000e-04, 5.2000000000e-04, 2.4000000000e-04
2860, 1.0000000000e-03, 5.2000000000e-04, 2.4000000000e-04
2861, 0.0000000000e+00, 5.6000000000e-04, 2.4000000000e-04
2862, 4.0000000000e-05, 5.6000000000e-04, 2.4000000000e-04
2863, 8.0000000000e-05, 5.6000000000e-04, 2.4000000000e-04
2864, 1.2000000000e-04, 5.6000000000e-04, 2.4000000000e-04
2865, 1.6000000000e-04, 5.6000000000e-04, 2.4000000000e-04
2866, 2.0000000000e-04, 5.6000000000e-04, 2.4000000000e-04
2867, 2.4000000000e-04, 5.6000000000e-04, 2.4000000000e-04
2868, 2.8000000000e-04, 5.6000000000e-04, 2.4000000000e-04
2869, 3.2000000000e-04, 5.6000000000e-04, 2.4000000000e-04
2870, 3.6000000000e-04, 5.6000000000e-04, 2.4000000000e-04
2871, 4.0000000000e-04, 5.6000000000e-04, 2.4000000000e-04
2872, 4.4000000000e-04, 5.6000000000e-04, 2.4000000000e-04
2873, 4.8000000000e-04, 5.6000000000e-04, 2.4000000000e-04
2874, 5.2000000000e-04, 5.6000000000e-04, 2.4000000000e-04
2875, 5.6000000000e-04, 5.6000000000e-04, 2.4000000000e-04
2876, 6.0000000000e-04, 5.6000000000e-04, 2.4000000000e-04
2877, 6.4000000000e-04, 5.6000000000e-04, 2.4000000000e-04
2878, 6.8000000000e-04, 5.6000000000e-04, 2.4000000000e-04
2879, 7.2000000000e-04, 5.6000000000e-04, 2.4000000000e-04
2880, 7.6000000000e-04, 5.6000000000e-04, 2.4000000000e-04
2881, 8.0000000000e-04, 5.6000000000e-04, 2.4000000000e-04
2882, 8.4000000000e-04, 5.6000000000e-04, 2.4000000000e-04
2883, 8.8000000000e-04, 5.6000000000e-04, 2.4000000000e-04
2884, 9.2000000000e-04, 5.6000000000e-04, 2.4000000000e-04
2885, 9.6000000000e-04, 5.6000000000e-04, 2.4000000000e-04
2886, 1.0000000000e-03, 5.6000000000e-04, 2.4000000000e-04
2887, 0.0000000000e+00, 6.0000000000e-04, 2.4000000000e-04
2888, 4.0000000000e-05, 6.0000000000e-04, 2.4000000000e-04
2889, 8.0000000000e-05, 6.0000000000e-04, 2.4000000000e-04
2890, 1.2000000000e-04, 6.0000000000e-04, 2.4000000000e-04
2891, 1.6000000000e-04, 6.0000000000e-04, 2.4000000000e-04
2892, 2.0000000000e-04, 6.0000000000e-04, 2.4000000000e-04
2893, 2.4000000000e-04, 6.0000000000e-04, 2.4000000000e-04
2894, 2.8000000000e-04, 6.0000000000e-04, 2.4000000000e-04
2895, 3.2000000000e-04, 6.0000000000e-04, 2.4000000000e-04
2896, 3.6000000000e-04, 6.0000000000e-04, 2.4000000000e-04
2897, 4.0000000000e-04, 6.0000000000e-04, 2.4000000000e-04
2898, 4.4000000000e-04, 6.0000000000e-04, 2.4000000000e-04
2899, 4.8000000000e-04, 6.0000000000e-04, 2.4000000000e-04
2900, 5.2000000000e-04, 6.0000000000e-04, 2.4000000000e-04
2901, 5.6000000000e-04, 6.0000000000e-04, 2.4000000000e-04
2902, 6.0000000000e-04, 6.0000000000e-04, 2.4000000000e-04
2903, 6.4000000000e-04, 6.0000000000e-04, 2.4000000000e-04
2904, 6.8000000000e-04, 6.0000000000e-04, 2.4000000000e-04
2905, 7.2000000000e-04, 6.0000000000e-04, 2.4000000000e-04
2906, 7.6000000000e-04, 6.0000000000e-04, 2.4000000000e-04
2907, 8.0000000000e-04, 6.0000000000e-04, 2.4000000000e-04
2908, 8.4000000000e-04, 6.0000000000e-04, 2.4000000000e-04
2909, 8.8000000000e-04, 6.0000000000e-04, 2.4000000000e-04
2910, 9.2000000000e-04, 6.0000000000e-04, 2.4000000000e-04
2911, 9.6000000000e-04, 6.0000000000e-04, 2.4000000000e-04
2912, 1.0000000000e-03, 6.0000000000e-04, 2.4000000000e-04
2913, 0.0000000000e+00, 0.0000000000e+00, 2.8000000000e-04
2914, 4.0000000000e-05, 0.0000000000e+00, 2.8000000000e-04
2915, 8.0000000000e-05, 0.0000000000e+00, 2.8000000000e-04
2916, 1.2000000000e-04, 0.0000000000e+00, 2.8000000000e-04
2917, 1.6000000000e-04, 0.0000000000e+00, 2.8000000000e-04
2918, 2.0000000000e-04, 0.0000000000e+00, 2.8000000000e-04
2919, 2.4000000000e-04, 0.0000000000e+00, 2.8000000000e-04
2920, 2.8000000000e-04, 0.0000000000e+00, 2.8000000000e-04
2921, 3.2000000000e-04, 0.0000000000e+00, 2.8000000000e-04
2922, 3.6000000000e-04, 0.0000000000e+00, 2.8000000000e-04
2923, 4.0000000000e-04, 0.0000000000e+00, 2.8000000000e-04
2924, 4.4000000000e-04, 0.0000000000e+00, 2.8000000000e-04
2925, 4.8000000000e-04, 0.0000000000e+00, 2.8000000000e-04
2926, 5.2000000000e-04, 0.0000000000e+00, 2.8000000000e-04
2927, 5.6000000000e-04, 0.0000000000e+00, 2.8000000000e-04
2928, 6.0000000000e-04, 0.0000000000e+00, 2.8000000000e-04
2929, 6.4000000000e-04, 0.0000000000e+00, 2.8000000000e-04
2930, 6.8000000000e-04, 0.0000000000e+00, 2.8000000000e-04
2931, 7.2000000000e-04, 0.0000000000e+00, 2.8000000000e-04
2932, 7.6000000000e-04, 0.0000000000e+00, 2.8000000000e-04
2933, 8.0000000000e-04, 0.0000000000e+00, 2.8000000000e-04
2934, 8.4000000000e-04, 0.0000000000e+00, 2.8000000000e-04
2935, 8.8000000000e-04, 0.0000000000e+00, 2.8000000000e-04
2936, 9.2000000000e-04, 0.0000000000e+00, 2.8000000000e-04
2937, 9.6000000000e-04, 0.0000000000e+00, 2.8000000000e-04
2938, 1.0000000000e-03, 0.0000000000e+00, 2.8000000000e-04
2939, 0.0000000000e+00, 4.0000000000e-05, 2.8000000000e-04
2940, 4.0000000000e-05, 4.0000000000e-05, 2.8000000000e-04
2941, 8.0000000000e-05, 4.0000000000e-05, 2.8000000000e-04
2942, 1.2000000000e-04, 4.0000000000e-05, 2.8000000000e-04
2943, 1.6000000000e-04, 4.0000000000e-05, 2.8000000000e-04
2944, 2.0000000000e-04, 4.0000000000e-05, 2.8000000000e-04
2945, 2.4000000000e-04, 4.0000000000e-05, 2.8000000000e-04
2946, 2.8000000000e-04, 4.0000000000e-05, 2.8000000000e-04
2947, 3.2000000000e-04, 4.0000000000e-05, 2.8000000000e-04
2948, 3.6000000000e-04, 4.0000000000e-05, 2.8000000000e-04
2949, 4.0000000000e-04, 4.0000000000e-05, 2.8000000000e-04
2950, 4.4000000000e-04, 4.0000000000e-05, 2.8000000000e-04
2951, 4.8000000000e-04, 4.0000000000e-05, 2.8000000000e-04
2952, 5.2000000000e-04, 4.0000000000e-05, 2.8000000000e-04
2953, 5.6000000000e-04, 4.0000000000e-05, 2.8000000000e-04
2954, 6.0000000000e-04, 4.0000000000e-05, 2.8000000000e-04
2955, 6.4000000000e-04, 4.0000000000e-05, 2.8000000000e-04
2956, 6.8000000000e-04, 4.0000000000e-05, 2.8000000000e-04
2957, 7.2000000000e-04, 4.0000000000e-05, 2.8000000000e-04
2958, 7.6000000000e-04, 4.0000000000e-05, 2.8000000000e-04
2959, 8.0000000000e-04, 4.0000000000e-05, 2.8000000000e-04
2960, 8.4000000000e-04, 4.0000000000e-05, 2.8000000000e-04
2961, 8.8000000000e-04, 4.0000000000e-05, 2.8000000000e-04
2962, 9.2000000000e-04, 4.0000000000e-05, 2.8000000000e-04
2963, 9.6000000000e-04, 4.0000000000e-05, 2.8000000000e-04
2964, 1.0000000000e-03, 4.0000000000e-05, 2.8000000000e-04
2965, 0.0000000000e+00, 8.0000000000e-05, 2.8000000000e-04
2966, 4.0000000000e-05, 8.0000000000e-05, 2.8000000000e-04
2967, 8.0000000000e-05, 8.0000000000e-05, 2.8000000000e-04
2968, 1.2000000000e-04, 8.0000000000e-05, 2.8000000000e-04
2969, 1.6000000000e-04, 8.0000000000e-05, 2.8000000000e-04
2970, 2.0000000000e-04, 8.0000000000e-05, 2.8000000000e-04
2971, 2.4000000000e-04, 8.0000000000e-05, 2.8000000000e-04
2972, 2.8000000000e-04, 8.0000000000e-05, 2.8000000000e-04
2973, 3.2000000000e-04, 8.0000000000e-05, 2.8000000000e-04
2974, 3.6000000000e-04, 8.0000000000e-05, 2.8000000000e-04
2975, 4.0000000000e-04, 8.0000000000e-05, 2.8000000000e-04
2976, 4.4000000000e-04, 8.0000000000e-05, 2.8000000000e-04
2977, 4.8000000000e-04, 8.0000000000e-05, 2.8000000000e-04
2978, 5.2000000000e-04, 8.0000000000e-05, 2.8000000000e-04
2979, 5.6000000000e-04, 8.0000000000e-05, 2.8000000000e-04
2980, 6.0000000000e-04, 8.0000000000e-05, 2.8000000000e-04
2981, 6.4000000000e-04, 8.0000000000e-05, 2.8000000000e-04
2982, 6.8000000000e-04, 8.0000000000e-05, 2.8000000000e-04
2983, 7.2000000000e-04, 8.0000000000e-05, 2.8000000000e-04
2984, 7.6000000000e-04, 8.0000000000e-05, 2.8000000000e-04
2985, 8.0000000000e-04, 8.0000000000e-05, 2.8000000000e-04
2986, 8.4000000000e-04, 8.0000000000e-05, 2.8000000000e-04
2987, 8.8000000000e-04, 8.0000000000e-05, 2.8000000000e-04
2988, 9.2000000000e-04, 8.0000000000e-05, 2.8000000000e-04
2989, 9.6000000000e-04, 8.0000000000e-05, 2.8000000000e-04
2990, 1.0000000000e-03, 8.0000000000e-05, 2.8000000000e-04
2991, 0.0000000000e+00, 1.2000000000e-04, 2.8000000000e-04
2992, 4.0000000000e-05, 1.2000000000e-04, 2.8000000000e-04
2993, 8.0000000000e-05, 1.2000000000e-04, 2.8000000000e-04
2994, 1.2000000000e-04, 1.2000000000e-04, 2.8000000000e-04
2995, 1.6000000000e-04, 1.2000000000e-04, 2.8000000000e-04
2996, 2.0000000000e-04, 1.2000000000e-04, 2.8000000000e-04
2997, 2.4000000000e-04, 1.2000000000e-04, 2.8000000000e-04
2998, 2.8000000000e-04, 1.2000000000e-04, 2.8000000000e-04
2999, 3.2000000000e-04, 1.2000000000e-04, 2.8000000000e-04
3000, 3.6000000000e-04, 1.2000000000e-04, 2.8000000000e-04
3001, 4.0000000000e-04, 1.2000000000e-04, 2.8000000000e-04
3002, 4.4000000000e-04, 1.2000000000e-04, 2.8000000000e-04
3003, 4.8000000000e-04, 1.2000000000e-04, 2.8000000000e-04
3004, 5.2000000000e-04, 1.2000000000e-04, 2.8000000000e-04
3005, 5.6000000000e-04, 1.2000000000e-04, 2.8000000000e-04
3006, 6.0000000000e-04, 1.2000000000e-04, 2.8000000000e-04
3007, 6.4000000000e-04, 1.2000000000e-04, 2.8000000000e-04
3008, 6.8000000000e-04, 1.2000000000e-04, 2.8000000000e-04
3009, 7.2000000000e-04, 1.2000000000e-04, 2.8000000000e-04
3010, 7.6000000000e-04, 1.2000000000e-04, 2.8000000000e-04
3011, 8.0000000000e-04, 1.2000000000e-04, 2.8000000000e-04
3012, 8.4000000000e-04, 1.2000000000e-04, 2.8000000000e-04
3013, 8.8000000000e-04, 1.2000000000e-04, 2.8000000000e-04
3014, 9.2000000000e-04, 1.2000000000e-04, 2.8000000000e-04
3015, 9.6000000000e-04, 1.2000000000e-04, 2.8000000000e-04
3016, 1.0000000000e-03, 1.2000000000e-04, 2.8000000000e-04
3017, 0.0000000000e+00, 1.6000000000e-04, 2.8000000000e-04
3018, 4.0000000000e-05, 1.6000000000e-04, 2.8000000000e-04
3019, 8.0000000000e-05, 1.6000000000e-04, 2.8000000000e-04
3020, 1.2000000000e-04, 1.6000000000e-04, 2.8000000000e-04
3021, 1.6000000000e-04, 1.6000000000e-04, 2.8000000000e-04
3022, 2.0000000000e-04, 1.6000000000e-04, 2.8000000000e-04
3023, 2.4000000000e-04, 1.6000000000e-04, 2.8000000000e-04
3024, 2.8000000000e-04, 1.6000000000e-04, 2.8000000000e-04
3025, 3.2000000000e-04, 1.6000000000e-04, 2.8000000000e-04
3026, 3.6000000000e-04, 1.6000000000e-04, 2.8000000000e-04
3027, 4.0000000000e-04, 1.6000000000e-04, 2.8000000000e-04
3028, 4.4000000000e-04, 1.6000000000e-04, 2.8000000000e-04
3029, 4.8000000000e-04, 1.6000000000e-04, 2.8000000000e-04
3030, 5.2000000000e-04, 1.6000000000e-04, 2.8000000000e-04
3031, 5.6000000000e-04, 1.6000000000e-04, 2.8000000000e-04
3032, 6.0000000000e-04, 1.6000000000e-04, 2.8000000000e-04
3033, 6.4000000000e-04, 1.6000000000e-04, 2.8000000000e-04
3034, 6.8000000000e-04, 1.6000000000e-04, 2.8000000000e-04
3035, 7.2000000000e-04, 1.6000000000e-04, 2.8000000000e-04
3036, 7.6000000000e-04, 1.6000000000e-04, 2.8000000000e-04
3037, 8.0000000000e-04, 1.6000000000e-04, 2.8000000000e-04
3038, 8.4000000000e-04, 1.6000000000e-04, 2.8000000000e-04
3039, 8.8000000000e-04, 1.6000000000e-04, 2.8000000000e-04
3040, 9.2000000000e-04, 1.6000000000e-04, 2.8000000000e-04
3041, 9.6000000000e-04, 1.6000000000e-04, 2.8000000000e-04
3042, 1.0000000000e-03, 1.6000000000e-04, 2.8000000000e-04
3043, 0.0000000000e+00, 2.0000000000e-04, 2.8000000000e-04
3044, 4.0000000000e-05, 2.0000000000e-04, 2.8000000000e-04
3045, 8.0000000000e-05, 2.0000000000e-04, 2.8000000000e-04
3046, 1.2000000000e-04, 2.0000000000e-04, 2.8000000000e-04
3047, 1.6000000000e-04, 2.0000000000e-04, 2.8000000000e-04
3048, 2.0000000000e-04, 2.0000000000e-04, 2.8000000000e-04
3049, 2.4000000000e-04, 2.0000000000e-04, 2.8000000000e-04
3050, 2.8000000000e-04, 2.0000000000e-04, 2.8000000000e-04
3051, 3.2000000000e-04, 2.0000000000e-04, 2.8000000000e-04
3052, 3.6000000000e-04, 2.0000000000e-04, 2.8000000000e-04
3053, 4.0000000000e-04, 2.0000000000e-04, 2.8000000000e-04
3054, 4.4000000000e-04, 2.0000000000e-04, 2.8000000000e-04
3055, 4.8000000000e-04, 2.0000000000e-04, 2.8000000000e-04
3056, 5.2000000000e-04, 2.0000000000e-04, 2.8000000000e-04
3057, 5.6000000000e-04, 2.0000000000e-04, 2.8000000000e-04
3058, 6.0000000000e-04, 2.0000000000e-04, 2.8000000000e-04
3059, 6.4000000000e-04, 2.0000000000e-04, 2.8000000000e-04
3060, 6.8000000000e-04, 2.0000000000e-04, 2.8000000000e-04
3061, 7.2000000000e-04, 2.0000000000e-04, 2.8000000000e-04
3062, 7.6000000000e-04, 2.0000000000e-04, 2.8000000000e-04
3063, 8.0000000000e-04, 2.0000000000e-04, 2.8000000000e-04
3064, 8.4000000000e-04, 2.0000000000e-04, 2.8000000000e-04
3065, 8.8000000000e-04, 2.0000000000e-04, 2.8000000000e-04
3066, 9.2000000000e-04, 2.0000000000e-04, 2.8000000000e-04
3067, 9.6000000000e-04, 2.0000000000e-04, 2.8000000000e-04
3068, 1.0000000000e-03, 2.0000000000e-04, 2.8000000000e-04
3069, 0.0000000000e+00, 2.4000000000e-04, 2.8000000000e-04
3070, 4.0000000000e-05, 2.4000000000e-04, 2.8000000000e-04
3071, 8.0000000000e-05, 2.4000000000e-04, 2.8000000000e-04
3072, 1.2000000000e-04, 2.4000000000e-04, 2.8000000000e-04
3073, 1.6000000000e-04, 2.4000000000e-04, 2.8000000000e-04
3074, 2.0000000000e-04, 2.4000000000e-04, 2.8000000000e-04
3075, 2.4000000000e-04, 2.4000000000e-04, 2.8000000000e-04
3076, 2.8000000000e-04, 2.4000000000e-04, 2.8000000000e-04
3077, 3.2000000000e-04, 2.4000000000e-04, 2.8000000000e-04
3078, 3.6000000000e-04, 2.4000000000e-04, 2.8000000000e-04
3079, 4.0000000000e-04, 2.4000000000e-04, 2.8000000000e-04
3080, 4.4000000000e-04, 2.4000000000e-04, 2.8000000000e-04
3081, 4.8000000000e-04, 2.4000000000e-04, 2.8000000000e-04
3082, 5.2000000000e-04, 2.4000000000e-04, 2.8000000000e-04
3083, 5.6000000000e-04, 2.4000000000e-04, 2.8000000000e-04
3084, 6.0000000000e-04, 2.4000000000e-04, 2.8000000000e-04
3085, 6.4000000000e-04, 2.4000000000e-04, 2.8000000000e-04
3086, 6.8000000000e-04, 2.4000000000e-04, 2.8000000000e-04
3087, 7.2000000000e-04, 2.4000000000e-04, 2.8000000000e-04
3088, 7.6000000000e-04, 2.4000000000e-04, 2.8000000000e-04
3089, 8.0000000000e-04, 2.4000000000e-04, 2.8000000000e-04
3090, 8.4000000000e-04, 2.4000000000e-04, 2.8000000000e-04
3091, 8.8000000000e-04, 2.4000000000e-04, 2.8000000000e-04
3092, 9.2000000000e-04, 2.4000000000e-04, 2.8000000000e-04
3093, 9.6000000000e-04, 2.4000000000e-04, 2.8000000000e-04
3094, 1.0000000000e-03, 2.4000000000e-04, 2.8000000000e-04
3095, 0.0000000000e+00, 2.8000000000e-04, 2.8000000000e-04
3096, 4.0000000000e-05, 2.8000000000e-04, 2.8000000000e-04
3097, 8.0000000000e-05, 2.8000000000e-04, 2.8000000000e-04
3098, 1.2000000000e-04, 2.8000000000e-04, 2.8000000000e-04
3099, 1.6000000000e-04, 2.8000000000e-04, 2.8000000000e-04
3100, 2.0000000000e-04, 2.8000000000e-04, 2.8000000000e-04
3101, 2.4000000000e-04, 2.8000000000e-04, 2.8000000000e-04
3102, 2.8000000000e-04, 2.8000000000e-04, 2.8000000000e-04
3103, 3.2000000000e-04, 2.8000000000e-04, 2.8000000000e-04
3104, 3.6000000000e-04, 2.8000000000e-04, 2.8000000000e-04
3105, 4.0000000000e-04, 2.8000000000e-04, 2.8000000000e-04
3106, 4.4000000000e-04, 2.8000000000e-04, 2.8000000000e-04
3107, 4.8000000000e-04, 2.8000000000e-04, 2.8000000000e-04
3108, 5.2000000000e-04, 2.8000000000e-04, 2.8000000000e-04
3109, 5.6000000000e-04, 2.8000000000e-04, 2.8000000000e-04
3110, 6.0000000000e-04, 2.8000000000e-04, 2.8000000000e-04
3111, 6.4000000000e-04, 2.8000000000e-04, 2.8000000000e-04
3112, 6.8000000000e-04, 2.8000000000e-04, 2.8000000000e-04
3113, 7.2000000000e-04, 2.8000000000e-04, 2.8000000000e-04
3114, 7.6000000000e-04, 2.8000000000e-04, 2.8000000000e-04
3115, 8.0000000000e-04, 2.8000000000e-04, 2.8000000000e-04
3116, 8.4000000000e-04, 2.8000000000e-04, 2.8000000000e-04
3117, 8.8000000000e-04, 2.8000000000e-04, 2.8000000000e-04
3118, 9.2000000000e-04, 2.8000000000e-04, 2.8000000000e-04
3119, 9.6000000000e-04, 2.8000000000e-04, 2.8000000000e-04
3120, 1.0000000000e-03, 2.8000000000e-04, 2.8000000000e-04
3121, 0.0000000000e+00, 3.2000000000e-04, 2.8000000000e-04
3122, 4.0000000000e-05, 3.2000000000e-04, 2.8000000000e-04
3123, 8.0000000000e-05, 3.2000000000e-04, 2.8000000000e-04
3124, 1.2000000000e-04, 3.2000000000e-04, 2.8000000000e-04
3125, 1.6000000000e-04, 3.2000000000e-04, 2.8000000000e-04
3126, 2.0000000000e-04, 3.2000000000e-04, 2.8000000000e-04
3127, 2.4000000000e-04, 3.2000000000e-04, 2.8000000000e-04
3128, 2.8000000000e-04, 3.2000000000e-04, 2.8000000000e-04
3129, 3.2000000000e-04, 3.2000000000e-04, 2.8000000000e-04
3130, 3.6000000000e-04, 3.2000000000e-04, 2.8000000000e-04
3131, 4.0000000000e-04, 3.2000000000e-04, 2.8000000000e-04
3132, 4.4000000000e-04, 3.2000000000e-04, 2.8000000000e-04
3133, 4.8000000000e-04, 3.2000000000e-04, 2.8000000000e-04
3134, 5.2000000000e-04, 3.2000000000e-04, 2.8000000000e-04
3135, 5.6000000000e-04, 3.2000000000e-04, 2.8000000000e-04
3136, 6.0000000000e-04, 3.2000000000e-04, 2.8000000000e-04
3137, 6.4000000000e-04, 3.2000000000e-04, 2.8000000000e-04
3138, 6.8000000000e-04, 3.2000000000e-04, 2.8000000000e-04
3139, 7.2000000000e-04, 3.2000000000e-04, 2.8000000000e-04
3140, 7.6000000000e-04, 3.2000000000e-04, 2.8000000000e-04
3141, 8.0000000000e-04, 3.2000000000e-04, 2.8000000000e-04
3142, 8.4000000000e-04, 3.2000000000e-04, 2.8000000000e-04
3143, 8.8000000000e-04, 3.2000000000e-04, 2.8000000000e-04
3144, 9.2000000000e-04, 3.2000000000e-04, 2.8000000000e-04
3145, 9.6000000000e-04, 3.2000000000e-04, 2.8000000000e-04
3146, 1.0000000000e-03, 3.2000000000e-04, 2.8000000000e-04
3147, 0.0000000000e+00, 3.6000000000e-04, 2.8000000000e-04
3148, 4.0000000000e-05, 3.6000000000e-04, 2.8000000000e-04
3149, 8.0000000000e-05, 3.6000000000e-04, 2.8000000000e-04
3150, 1.2000000000e-04, 3.6000000000e-04, 2.8000000000e-04
3151, 1.6000000000e-04, 3.6000000000e-04, 2.8000000000e-04
3152, 2.0000000000e-04, 3.6000000000e-04, 2.8000000000e-04
3153, 2.4000000000e-04, 3.6000000000e-04, 2.8000000000e-04
3154, 2.8000000000e-04, 3.6000000000e-04, 2.8000000000e-04
3155, 3.2000000000e-04, 3.6000000000e-04, 2.8000000000e-04
3156, 3.6000000000e-04, 3.6000000000e-04, 2.8000000000e-04
3157, 4.0000000000e-04, 3.6000000000e-04, 2.8000000000e-04
3158, 4.4000000000e-04, 3.6000000000e-04, 2.8000000000e-04
3159, 4.8000000000e-04, 3.6000000000e-04, 2.8000000000e-04
3160, 5.2000000000e-04, 3.6000000000e-04, 2.8000000000e-04
3161, 5.6000000000e-04, 3.6000000000e-04, 2.8000000000e-04
3162, 6.0000000000e-04, 3.6000000000e-04, 2.8000000000e-04
3163, 6.4000000000e-04, 3.6000000000e-04, 2.8000000000e-04
3164, 6.8000000000e-04, 3.6000000000e-04, 2.8000000000e-04
3165, 7.2000000000e-04, 3.6000000000e-04, 2.8000000000e-04
3166, 7.6000000000e-04, 3.6000000000e-04, 2.8000000000e-04
3167, 8.0000000000e-04, 3.6000000000e-04, 2.8000000000e-04
3168, 8.4000000000e-04, 3.6000000000e-04, 2.8000000000e-04
3169, 8.8000000000e-04, 3.6000000000e-04, 2.8000000000e-04
3170, 9.2000000000e-04, 3.6000000000e-04, 2.8000000000e-04
3171, 9.6000000000e-04, 3.6000000000e-04, 2.8000000000e-04
3172, 1.0000000000e-03, 3.6000000000e-04, 2.8000000000e-04
3173, 0.0000000000e+00, 4.0000000000e-04, 2.8000000000e-04
3174, 4.0000000000e-05, 4.0000000000e-04, 2.8000000000e-04
3175, 8.0000000000e-05, 4.0000000000e-04, 2.8000000000e-04
3176, 1.2000000000e-04, 4.0000000000e-04, 2.8000000000e-04
3177, 1.6000000000e-04, 4.0000000000e-04, 2.8000000000e-04
3178, 2.0000000000e-04, 4.0000000000e-04, 2.8000000000e-04
3179, 2.4000000000e-04, 4.0000000000e-04, 2.8000000000e-04
3180, 2.8000000000e-04, 4.0000000000e-04, 2.8000000000e-04
3181, 3.2000000000e-04, 4.0000000000e-04, 2.8000000000e-04
3182, 3.6000000000e-04, 4.0000000000e-04, 2.8000000000e-04
3183, 4.0000000000e-04, 4.0000000000e-04, 2.8000000000e-04
3184, 4.4000000000e-04, 4.0000000000e-04, 2.8000000000e-04
3185, 4.8000000000e-04, 4.0000000000e-04, 2.8000000000e-04
3186, 5.2000000000e-04, 4.0000000000e-04, 2.8000000000e-04
3187, 5.6000000000e-04, 4.0000000000e-04, 2.8000000000e-04
3188, 6.0000000000e-04, 4.0000000000e-04, 2.8000000000e-04
3189, 6.4000000000e-04, 4.0000000000e-04, 2.8000000000e-04
3190, 6.8000000000e-04, 4.0000000000e-04, 2.8000000000e-04
3191, 7.2000000000e-04, 4.0000000000e-04, 2.8000000000e-04
3192, 7.6000000000e-04, 4.0000000000e-04, 2.8000000000e-04
3193, 8.0000000000e-04, 4.0000000000e-04, 2.8000000000e-04
3194, 8.4000000000e-04, 4.0000000000e-04, 2.8000000000e-04
3195, 8.8000000000e-04, 4.0000000000e-04, 2.8000000000e-04
3196, 9.2000000000e-04, 4.0000000000e-04, 2.8000000000e-04
3197, 9.6000000000e-04, 4.0000000000e-04, 2.8000000000e-04
3198, 1.0000000000e-03, 4.0000000000e-04, 2.8000000000e-04
3199, 0.0000000000e+00, 4.4000000000e-04, 2.8000000000e-04
3200, 4.0000000000e-05, 4.4000000000e-04, 2.8000000000e-04
3201, 8.0000000000e-05, 4.4000000000e-04, 2.8000000000e-04
3202, 1.2000000000e-04, 4.4000000000e-04, 2.8000000000e-04
3203, 1.6000000000e-04, 4.4000000000e-04, 2.8000000000e-04
3204, 2.0000000000e-04, 4.4000000000e-04, 2.8000000000e-04
3205, 2.4000000000e-04, 4.4000000000e-04, 2.8000000000e-04
3206, 2.8000000000e-04, 4.4000000000e-04, 2.8000000000e-04
3207, 3.2000000000e-04, 4.4000000000e-04, 2.8000000000e-04
3208, 3.6000000000e-04, 4.4000000000e-04, 2.8000000000e-04
3209, 4.0000000000e-04, 4.4000000000e-04, 2.8000000000e-04
3210, 4.4000000000e-04, 4.4000000000e-04, 2.8000000000e-04
3211, 4.8000000000e-04, 4.4000000000e-04, 2.8000000000e-04
3212, 5.2000000000e-04, 4.4000000000e-04, 2.8000000000e-04
3213, 5.6000000000e-04, 4.4000000000e-04, 2.8000000000e-04
3214, 6.0000000000e-04, 4.4000000000e-04, 2.8000000000e-04
3215, 6.4000000000e-04, 4.4000000000e-04, 2.8000000000e-04
3216, 6.8000000000e-04, 4.4000000000e-04, 2.8000000000e-04
3217, 7.2000000000e-04, 4.4000000000e-04, 2.8000000000e-04
3218, 7.6000000000e-04, 4.4000000000e-04, 2.8000000000e-04
3219, 8.0000000000e-04, 4.4000000000e-04, 2.8000000000e-04
3220, 8.4000000000e-04, 4.4000000000e-04, 2.8000000000e-04
3221, 8.8000000000e-04, 4.4000000000e-04, 2.8000000000e-04
3222, 9.2000000000e-04, 4.4000000000e-04, 2.8000000000e-04
3223, 9.6000000000e-04, 4.4000000000e-04, 2.8000000000e-04
3224, 1.0000000000e-03, 4.4000000000e-04, 2.8000000000e-04
3225, 0.0000000000e+00, 4.8000000000e-04, 2.8000000000e-04
3226, 4.0000000000e-05, 4.8000000000e-04, 2.8000000000e-04
3227, 8.0000000000e-05, 4.8000000000e-04, 2.8000000000e-04
3228, 1.2000000000e-04, 4.8000000000e-04, 2.8000000000e-04
3229, 1.6000000000e-04, 4.8000000000e-04, 2.8000000000e-04
3230, 2.0000000000e-04, 4.8000000000e-04, 2.8000000000e-04
3231, 2.4000000000e-04, 4.8000000000e-04, 2.8000000000e-04
3232, 2.8000000000e-04, 4.8000000000e-04, 2.8000000000e-04
3233, 3.2000000000e-04, 4.8000000000e-04, 2.8000000000e-04
3234, 3.6000000000e-04, 4.8000000000e-04, 2.8000000000e-04
3235, 4.0000000000e-04, 4.8000000000e-04, 2.8000000000e-04
3236, 4.4000000000e-04, 4.8000000000e-04, 2.8000000000e-04
3237, 4.8000000000e-04, 4.8000000000e-04, 2.8000000000e-04
3238, 5.2000000000e-04, 4.8000000000e-04, 2.8000000000e-04
3239, 5.6000000000e-04, 4.8000000000e-04, 2.8000000000e-04
3240, 6.0000000000e-04, 4.8000000000e-04, 2.8000000000e-04
3241, 6.4000000000e-04, 4.8000000000e-04, 2.8000000000e-04
3242, 6.8000000000e-04, 4.8000000000e-04, 2.8000000000e-04
3243, 7.2000000000e-04, 4.8000000000e-04, 2.8000000000e-04
3244, 7.6000000000e-04, 4.8000000000e-04, 2.8000000000e-04
3245, 8.0000000000e-04, 4.8000000000e-04, 2.8000000000e-04
3246, 8.4000000000e-04, 4.8000000000e-04, 2.8000000000e-04
3247, 8.8000000000e-04, 4.8000000000e-04, 2.8000000000e-04
3248, 9.2000000000e-04, 4.8000000000e-04, 2.8000000000e-04
3249, 9.6000000000e-04, 4.8000000000e-04, 2.8000000000e-04
3250, 1.0000000000e-03, 4.8000000000e-04, 2.8000000000e-04
3251, 0.0000000000e+00, 5.2000000000e-04, 2.8000000000e-04
3252, 4.0000000000e-05, 5.2000000000e-04, 2.8000000000e-04
3253, 8.0000000000e-05, 5.2000000000e-04, 2.8000000000e-04
3254, 1.2000000000e-04, 5.2000000000e-04, 2.8000000000e-04
3255, 1.6000000000e-04, 5.2000000000e-04, 2.8000000000e-04
3256, 2.0000000000e-04, 5.2000000000e-04, 2.8000000000e-04
3257, 2.4000000000e-04, 5.2000000000e-04, 2.8000000000e-04
3258, 2.8000000000e-04, 5.2000000000e-04, 2.8000000000e-04
3259, 3.2000000000e-04, 5.2000000000e-04, 2.8000000000e-04
3260, 3.6000000000e-04, 5.2000000000e-04, 2.8000000000e-04
3261, 4.0000000000e-04, 5.2000000000e-04, 2.8000000000e-04
3262, 4.4000000000e-04, 5.2000000000e-04, 2.8000000000e-04
3263, 4.8000000000e-04, 5.2000000000e-04, 2.8000000000e-04
3264, 5.2000000000e-04, 5.2000000000e-04, 2.8000000000e-04
3265, 5.6000000000e-04, 5.2000000000e-04, 2.8000000000e-04
3266, 6.0000000000e-04, 5.2000000000e-04, 2.8000000000e-04
3267, 6.4000000000e-04, 5.2000000000e-04, 2.8000000000e-04
3268, 6.8000000000e-04, 5.2000000000e-04, 2.8000000000e-04
3269, 7.2000000000e-04, 5.2000000000e-04, 2.8000000000e-04
3270, 7.6000000000e-04, 5.2000000000e-04, 2.8000000000e-04
3271, 8.0000000000e-04, 5.2000000000e-04, 2.8000000000e-04
3272, 8.4000000000e-04, 5.2000000000e-04, 2.8000000000e-04
3273, 8.8000000000e-04, 5.2000000000e-04, 2.8000000000e-04
3274, 9.2000000000e-04, 5.2000000000e-04, 2.8000000000e-04
3275, 9.6000000000e-04, 5.2000000000e-04, 2.8000000000e-04
3276, 1.0000000000e-03, 5.2000000000e-04, 2.8000000000e-04
3277, 0.0000000000e+00, 5.6000000000e-04, 2.8000000000e-04
3278, 4.0000000000e-05, 5.6000000000e-04, 2.8000000000e-04
3279, 8.0000000000e-05, 5.6000000000e-04, 2.8000000000e-04
3280, 1.2000000000e-04, 5.6000000000e-04, 2.8000000000e-04
3281, 1.6000000000e-04, 5.6000000000e-04, 2.8000000000e-04
3282, 2.0000000000e-04, 5.6000000000e-04, 2.8000000000e-04
3283, 2.4000000000e-04, 5.6000000000e-04, 2.8000000000e-04
3284, 2.8000000000e-04, 5.6000000000e-04, 2.8000000000e-04
3285, 3.2000000000e-04, 5.6000000000e-04, 2.8000000000e-04
3286, 3.6000000000e-04, 5.6000000000e-04, 2.8000000000e-04
3287, 4.0000000000e-04, 5.6000000000e-04, 2.8000000000e-04
3288, 4.4000000000e-04, 5.6000000000e-04, 2.8000000000e-04
3289, 4.8000000000e-04, 5.6000000000e-04, 2.8000000000e-04
3290, 5.2000000000e-04, 5.6000000000e-04, 2.8000000000e-04
3291, 5.6000000000e-04, 5.6000000000e-04, 2.8000000000e-04
3292, 6.0000000000e-04, 5.6000000000e-04, 2.8000000000e-04
3293, 6.4000000000e-04, 5.6000000000e-04, 2.8000000000e-04
3294, 6.8000000000e-04, 5.6000000000e-04, 2.8000000000e-04
3295, 7.2000000000e-04, 5.6000000000e-04, 2.8000000000e-04
3296, 7.6000000000e-04, 5.6000000000e-04, 2.8000000000e-04
3297, 8.0000000000e-04, 5.6000000000e-04, 2.8000000000e-04
3298, 8.4000000000e-04, 5.6000000000e-04, 2.8000000000e-04
3299, 8.8000000000e-04, 5.6000000000e-04, 2.8000000000e-04
3300, 9.2000000000e-04, 5.6000000000e-04, 2.8000000000e-04
3301, 9.6000000000e-04, 5.6000000000e-04, 2.8000000000e-04
3302, 1.0000000000e-03, 5.6000000000e-04, 2.8000000000e-04
3303, 0.0000000000e+00, 6.0000000000e-04, 2.8000000000e-04
3304, 4.0000000000e-05, 6.0000000000e-04, 2.8000000000e-04
3305, 8.0000000000e-05, 6.0000000000e-04, 2.8000000000e-04
3306, 1.2000000000e-04, 6.0000000000e-04, 2.8000000000e-04
3307, 1.6000000000e-04, 6.0000000000e-04, 2.8000000000e-04
3308, 2.0000000000e-04, 6.0000000000e-04, 2.8000000000e-04
3309, 2.4000000000e-04, 6.0000000000e-04, 2.8000000000e-04
3310, 2.8000000000e-04, 6.0000000000e-04, 2.8000000000e-04
3311, 3.2000000000e-04, 6.0000000000e-04, 2.8000000000e-04
3312, 3.6000000000e-04, 6.0000000000e-04, 2.8000000000e-04
3313, 4.0000000000e-04, 6.0000000000e-04, 2.8000000000e-04
3314, 4.4000000000e-04, 6.0000000000e-04, 2.8000000000e-04
3315, 4.8000000000e-04, 6.0000000000e-04, 2.8000000000e-04
3316, 5.2000000000e-04, 6.0000000000e-04, 2.8000000000e-04
3317, 5.6000000000e-04, 6.0000000000e-04, 2.8000000000e-04
3318, 6.0000000000e-04, 6.0000000000e-04, 2.8000000000e-04
3319, 6.4000000000e-04, 6.0000000000e-04, 2.8000000000e-04
3320, 6.8000000000e-04, 6.0000000000e-04, 2.8000000000e-04
3321, 7.2000000000e-04, 6.0000000000e-04, 2.8000000000e-04
3322, 7.6000000000e-04, 6.0000000000e-04, 2.8000000000e-04
3323, 8.0000000000e-04, 6.0000000000e-04, 2.8000000000e-04
3324, 8.4000000000e-04, 6.0000000000e-04, 2.8000000000e-04
3325, 8.8000000000e-04, 6.0000000000e-04, 2.8000000000e-04
3326, 9.2000000000e-04, 6.0000000000e-04, 2.8000000000e-04
3327, 9.6000000000e-04, 6.0000000000e-04, 2.8000000000e-04
3328, 1.0000000000e-03, 6.0000000000e-04, 2.8000000000e-04
3329, 0.0000000000e+00, 0.0000000000e+00, 3.2000000000e-04
3330, 4.0000000000e-05, 0.0000000000e+00, 3.2000000000e-04
3331, 8.0000000000e-05, 0.0000000000e+00, 3.2000000000e-04
3332, 1.2000000000e-04, 0.0000000000e+00, 3.2000000000e-04
3333, 1.6000000000e-04, 0.0000000000e+00, 3.2000000000e-04
3334, 2.0000000000e-04, 0.0000000000e+00, 3.2000000000e-04
3335, 2.4000000000e-04, 0.0000000000e+00, 3.2000000000e-04
3336, 2.8000000000e-04, 0.0000000000e+00, 3.2000000000e-04
3337, 3.2000000000e-04, 0.0000000000e+00, 3.2000000000e-04
3338, 3.6000000000e-04, 0.0000000000e+00, 3.2000000000e-04
3339, 4.0000000000e-04, 0.0000000000e+00, 3.2000000000e-04
3340, 4.4000000000e-04, 0.0000000000e+00, 3.2000000000e-04
3341, 4.8000000000e-04, 0.0000000000e+00, 3.2000000000e-04
3342, 5.2000000000e-04, 0.0000000000e+00, 3.2000000000e-04
3343, 5.6000000000e-04, 0.0000000000e+00, 3.2000000000e-04
3344, 6.0000000000e-04, 0.0000000000e+00, 3.2000000000e-04
3345, 6.4000000000e-04, 0.0000000000e+00, 3.2000000000e-04
3346, 6.8000000000e-04, 0.0000000000e+00, 3.2000000000e-04
3347, 7.2000000000e-04, 0.0000000000e+00, 3.2000000000e-04
3348, 7.6000000000e-04, 0.0000000000e+00, 3.2000000000e-04
3349, 8.0000000000e-04, 0.0000000000e+00, 3.2000000000e-04
3350, 8.4000000000e-04, 0.0000000000e+00, 3.2000000000e-04
3351, 8.8000000000e-04, 0.0000000000e+00, 3.2000000000e-04
3352, 9.2000000000e-04, 0.0000000000e+00, 3.2000000000e-04
3353, 9.6000000000e-04, 0.0000000000e+00, 3.2000000000e-04
3354, 1.0000000000e-03, 0.0000000000e+00, 3.2000000000e-04
3355, 0.0000000000e+00, 4.0000000000e-05, 3.2000000000e-04
3356, 4.0000000000e-05, 4.0000000000e-05, 3.2000000000e-04
3357, 8.0000000000e-05, 4.0000000000e-05, 3.2000000000e-04
3358, 1.2000000000e-04, 4.0000000000e-05, 3.2000000000e-04
3359, 1.6000000000e-04, 4.0000000000e-05, 3.2000000000e-04
3360, 2.0000000000e-04, 4.0000000000e-05, 3.2000000000e-04
3361, 2.4000000000e-04, 4.0000000000e-05, 3.2000000000e-04
3362, 2.8000000000e-04, 4.0000000000e-05, 3.2000000000e-04
3363, 3.2000000000e-04, 4.0000000000e-05, 3.2000000000e-04
3364, 3.6000000000e-04, 4.0000000000e-05, 3.2000000000e-04
3365, 4.0000000000e-04, 4.0000000000e-05, 3.2000000000e-04
3366, 4.4000000000e-04, 4.0000000000e-05, 3.2000000000e-04
3367, 4.8000000000e-04, 4.0000000000e-05, 3.2000000000e-04
3368, 5.2000000000e-04, 4.0000000000e-05, 3.2000000000e-04
3369, 5.6000000000e-04, 4.0000000000e-05, 3.2000000000e-04
3370, 6.0000000000e-04, 4.0000000000e-05, 3.2000000000e-04
3371, 6.4000000000e-04, 4.0000000000e-05, 3.2000000000e-04
3372, 6.8000000000e-04, 4.0000000000e-05, 3.2000000000e-04
3373, 7.2000000000e-04, 4.0000000000e-05, 3.2000000000e-04
3374, 7.6000000000e-04, 4.0000000000e-05, 3.2000000000e-04
3375, 8.0000000000e-04, 4.0000000000e-05, 3.2000000000e-04
3376, 8.4000000000e-04, 4.0000000000e-05, 3.2000000000e-04
3377, 8.8000000000e-04, 4.0000000000e-05, 3.2000000000e-04
3378, 9.2000000000e-04, 4.0000000000e-05, 3.2000000000e-04
3379, 9.6000000000e-04, 4.0000000000e-05, 3.2000000000e-04
3380, 1.0000000000e-03, 4.0000000000e-05, 3.2000000000e-04
3381, 0.0000000000e+00, 8.0000000000e-05, 3.2000000000e-04
3382, 4.0000000000e-05, 8.0000000000e-05, 3.2000000000e-04
3383, 8.0000000000e-05, 8.0000000000e-05, 3.2000000000e-04
3384, 1.2000000000e-04, 8.0000000000e-05, 3.2000000000e-04
3385, 1.6000000000e-04, 8.0000000000e-05, 3.2000000000e-04
3386, 2.0000000000e-04, 8.0000000000e-05, 3.2000000000e-04
3387, 2.4000000000e-04, 8.0000000000e-05, 3.2000000000e-04
3388, 2.8000000000e-04, 8.0000000000e-05, 3.2000000000e-04
3389, 3.2000000000e-04, 8.0000000000e-05, 3.2000000000e-04
3390, 3.6000000000e-04, 8.0000000000e-05, 3.2000000000e-04
3391, 4.0000000000e-04, 8.0000000000e-05, 3.2000000000e-04
3392, 4.4000000000e-04, 8.0000000000e-05, 3.2000000000e-04
3393, 4.8000000000e-04, 8.0000000000e-05, 3.2000000000e-04
3394, 5.2000000000e-04, 8.0000000000e-05, 3.2000000000e-04
3395, 5.6000000000e-04, 8.0000000000e-05, 3.2000000000e-04
3396, 6.0000000000e-04, 8.0000000000e-05, 3.2000000000e-04
3397, 6.4000000000e-04, 8.0000000000e-05, 3.2000000000e-04
3398, 6.8000000000e-04, 8.0000000000e-05, 3.2000000000e-04
3399, 7.2000000000e-04, 8.0000000000e-05, 3.2000000000e-04
3400, 7.6000000000e-04, 8.0000000000e-05, 3.2000000000e-04
3401, 8.0000000000e-04, 8.0000000000e-05, 3.2000000000e-04
3402, 8.4000000000e-04, 8.0000000000e-05, 3.2000000000e-04
3403, 8.8000000000e-04, 8.0000000000e-05, 3.2000000000e-04
3404, 9.2000000000e-04, 8.0000000000e-05, 3.2000000000e-04
3405, 9.6000000000e-04, 8.0000000000e-05, 3.2000000000e-04
3406, 1.0000000000e-03, 8.0000000000e-05, 3.2000000000e-04
3407, 0.0000000000e+00, 1.2000000000e-04, 3.2000000000e-04
3408, 4.0000000000e-05, 1.2000000000e-04, 3.2000000000e-04
3409, 8.0000000000e-05, 1.2000000000e-04, 3.2000000000e-04
3410, 1.2000000000e-04, 1.2000000000e-04, 3.2000000000e-04
3411, 1.6000000000e-04, 1.2000000000e-04, 3.2000000000e-04
3412, 2.0000000000e-04, 1.2000000000e-04, 3.2000000000e-04
3413, 2.4000000000e-04, 1.2000000000e-04, 3.2000000000e-04
3414, 2.8000000000e-04, 1.2000000000e-04, 3.2000000000e-04
3415, 3.2000000000e-04, 1.2000000000e-04, 3.2000000000e-04
3416, 3.6000000000e-04, 1.2000000000e-04, 3.2000000000e-04
3417, 4.0000000000e-04, 1.2000000000e-04, 3.2000000000e-04
3418, 4.4000000000e-04, 1.2000000000e-04, 3.2000000000e-04
3419, 4.8000000000e-04, 1.2000000000e-04, 3.2000000000e-04
3420, 5.2000000000e-04, 1.2000000000e-04, 3.2000000000e-04
3421, 5.6000000000e-04, 1.2000000000e-04, 3.2000000000e-04
3422, 6.0000000000e-04, 1.2000000000e-04, 3.2000000000e-04
3423, 6.4000000000e-04, 1.2000000000e-04, 3.2000000000e-04
3424, 6.8000000000e-04, 1.2000000000e-04, 3.2000000000e-04
3425, 7.2000000000e-04, 1.2000000000e-04, 3.2000000000e-04
3426, 7.6000000000e-04, 1.2000000000e-04, 3.2000000000e-04
3427, 8.0000000000e-04, 1.2000000000e-04, 3.2000000000e-04
3428, 8.4000000000e-04, 1.2000000000e-04, 3.2000000000e-04
3429, 8.8000000000e-04, 1.2000000000e-04, 3.2000000000e-04
3430, 9.2000000000e-04, 1.2000000000e-04, 3.2000000000e-04
3431, 9.6000000000e-04, 1.2000000000e-04, 3.2000000000e-04
3432, 1.0000000000e-03, 1.2000000000e-04, 3.2000000000e-04
3433, 0.0000000000e+00, 1.6000000000e-04, 3.2000000000e-04
3434, 4.0000000000e-05, 1.6000000000e-04, 3.2000000000e-04
3435, 8.0000000000e-05, 1.6000000000e-04, 3.2000000000e-04
3436, 1.2000000000e-04, 1.6000000000e-04, 3.2000000000e-04
3437, 1.6000000000e-04, 1.6000000000e-04, 3.2000000000e-04
3438, 2.0000000000e-04, 1.6000000000e-04, 3.2000000000e-04
3439, 2.4000000000e-04, 1.6000000000e-04, 3.2000000000e-04
3440, 2.8000000000e-04, 1.6000000000e-04, 3.2000000000e-04
3441, 3.2000000000e-04, 1.6000000000e-04, 3.2000000000e-04
3442, 3.6000000000e-04, 1.6000000000e-04, 3.2000000000e-04
3443, 4.0000000000e-04, 1.6000000000e-04, 3.2000000000e-04
3444, 4.4000000000e-04, 1.6000000000e-04, 3.2000000000e-04
3445, 4.8000000000e-04, 1.6000000000e-04, 3.2000000000e-04
3446, 5.2000000000e-04, 1.6000000000e-04, 3.2000000000e-04
3447, 5.6000000000e-04, 1.6000000000e-04, 3.2000000000e-04
3448, 6.0000000000e-04, 1.6000000000e-04, 3.2000000000e-04
3449, 6.4000000000e-04, 1.6000000000e-04, 3.2000000000e-04
3450, 6.8000000000e-04, 1.6000000000e-04, 3.2000000000e-04
3451, 7.2000000000e-04, 1.6000000000e-04, 3.2000000000e-04
3452, 7.6000000000e-04, 1.6000000000e-04, 3.2000000000e-04
3453, 8.0000000000e-04, 1.6000000000e-04, 3.2000000000e-04
3454, 8.4000000000e-04, 1.6000000000e-04, 3.2000000000e-04
3455, 8.8000000000e-04, 1.6000000000e-04, 3.2000000000e-04
3456, 9.2000000000e-04, 1.6000000000e-04, 3.2000000000e-04
3457, 9.6000000000e-04, 1.6000000000e-04, 3.2000000000e-04
3458, 1.0000000000e-03, 1.6000000000e-04, 3.2000000000e-04
3459, 0.0000000000e+00, 2.0000000000e-04, 3.2000000000e-04
3460, 4.0000000000e-05, 2.0000000000e-04, 3.2000000000e-04
3461, 8.0000000000e-05, 2.0000000000e-04, 3.2000000000e-04
3462, 1.2000000000e-04, 2.0000000000e-04, 3.2000000000e-04
3463, 1.6000000000e-04, 2.0000000000e-04, 3.2000000000e-04
3464, 2.0000000000e-04, 2.0000000000e-04, 3.2000000000e-04
3465, 2.4000000000e-04, 2.0000000000e-04, 3.2000000000e-04
3466, 2.8000000000e-04, 2.0000000000e-04, 3.2000000000e-04
3467, 3.2000000000e-04, 2.0000000000e-04, 3.2000000000e-04
3468, 3.6000000000e-04, 2.0000000000e-04, 3.2000000000e-04
3469, 4.0000000000e-04, 2.0000000000e-04, 3.2000000000e-04
3470, 4.4000000000e-04, 2.0000000000e-04, 3.2000000000e-04
3471, 4.8000000000e-04, 2.0000000000e-04, 3.2000000000e-04
3472, 5.2000000000e-04, 2.0000000000e-04, 3.2000000000e-04
3473, 5.6000000000e-04, 2.0000000000e-04, 3.2000000000e-04
3474, 6.0000000000e-04, 2.0000000000e-04, 3.2000000000e-04
3475, 6.4000000000e-04, 2.0000000000e-04, 3.2000000000e-04
3476, 6.8000000000e-04, 2.0000000000e-04, 3.2000000000e-04
3477, 7.2000000000e-04, 2.0000000000e-04, 3.2000000000e-04
3478, 7.6000000000e-04, 2.0000000000e-04, 3.2000000000e-04
3479, 8.0000000000e-04, 2.0000000000e-04, 3.2000000000e-04
3480, 8.4000000000e-04, 2.0000000000e-04, 3.2000000000e-04
3481, 8.8000000000e-04, 2.0000000000e-04, 3.2000000000e-04
3482, 9.2000000000e-04, 2.0000000000e-04, 3.2000000000e-04
3483, 9.6000000000e-04, 2.0000000000e-04, 3.2000000000e-04
3484, 1.0000000000e-03, 2.0000000000e-04, 3.2000000000e-04
3485, 0.0000000000e+00, 2.4000000000e-04, 3.2000000000e-04
3486, 4.0000000000e-05, 2.4000000000e-04, 3.2000000000e-04
3487, 8.0000000000e-05, 2.4000000000e-04, 3.2000000000e-04
3488, 1.2000000000e-04, 2.4000000000e-04, 3.2000000000e-04
3489, 1.6000000000e-04, 2.4000000000e-04, 3.2000000000e-04
3490, 2.0000000000e-04, 2.4000000000e-04, 3.2000000000e-04
3491, 2.4000000000e-04, 2.4000000000e-04, 3.2000000000e-04
3492, 2.8000000000e-04, 2.4000000000e-04, 3.2000000000e-04
3493, 3.2000000000e-04, 2.4000000000e-04, 3.2000000000e-04
3494, 3.6000000000e-04, 2.4000000000e-04, 3.2000000000e-04
3495, 4.0000000000e-04, 2.4000000000e-04, 3.2000000000e-04
3496, 4.4000000000e-04, 2.4000000000e-04, 3.2000000000e-04
3497, 4.8000000000e-04, 2.4000000000e-04, 3.2000000000e-04
3498, 5.2000000000e-04, 2.4000000000e-04, 3.2000000000e-04
3499, 5.6000000000e-04, 2.4000000000e-04, 3.2000000000e-04
3500, 6.0000000000e-04, 2.4000000000e-04, 3.2000000000e-04
3501, 6.4000000000e-04, 2.4000000000e-04, 3.2000000000e-04
3502, 6.8000000000e-04, 2.4000000000e-04, 3.2000000000e-04
3503, 7.2000000000e-04, 2.4000000000e-04, 3.2000000000e-04
3504, 7.6000000000e-04, 2.4000000000e-04, 3.2000000000e-04
3505, 8.0000000000e-04, 2.4000000000e-04, 3.2000000000e-04
3506, 8.4000000000e-04, 2.4000000000e-04, 3.2000000000e-04
3507, 8.8000000000e-04, 2.4000000000e-04, 3.2000000000e-04
3508, 9.2000000000e-04, 2.4000000000e-04, 3.2000000000e-04
3509, 9.6000000000e-04, 2.4000000000e-04, 3.2000000000e-04
3510, 1.0000000000e-03, 2.4000000000e-04, 3.2000000000e-04
3511, 0.0000000000e+00, 2.8000000000e-04, 3.2000000000e-04
3512, 4.0000000000e-05, 2.8000000000e-04, 3.2000000000e-04
3513, 8.0000000000e-05, 2.8000000000e-04, 3.2000000000e-04
3514, 1.2000000000e-04, 2.8000000000e-04, 3.2000000000e-04
3515, 1.6000000000e-04, 2.8000000000e-04, 3.2000000000e-04
3516, 2.0000000000e-04, 2.8000000000e-04, 3.2000000000e-04
3517, 2.4000000000e-04, 2.8000000000e-04, 3.2000000000e-04
3518, 2.8000000000e-04, 2.8000000000e-04, 3.2000000000e-04
3519, 3.2000000000e-04, 2.8000000000e-04, 3.2000000000e-04
3520, 3.6000000000e-04, 2.8000000000e-04, 3.2000000000e-04
3521, 4.0000000000e-04, 2.8000000000e-04, 3.2000000000e-04
3522, 4.4000000000e-04, 2.8000000000e-04, 3.2000000000e-04
3523, 4.8000000000e-04, 2.8000000000e-04, 3.2000000000e-04
3524, 5.2000000000e-04, 2.8000000000e-04, 3.2000000000e-04
3525, 5.6000000000e-04, 2.8000000000e-04, 3.2000000000e-04
3526, 6.0000000000e-04, 2.8000000000e-04, 3.2000000000e-04
3527, 6.4000000000e-04, 2.8000000000e-04, 3.2000000000e-04
3528, 6.8000000000e-04, 2.8000000000e-04, 3.2000000000e-04
3529, 7.2000000000e-04, 2.8000000000e-04, 3.2000000000e-04
3530, 7.6000000000e-04, 2.8000000000e-04, 3.2000000000e-04
3531, 8.0000000000e-04, 2.8000000000e-04, 3.2000000000e-04
3532, 8.4000000000e-04, 2.8000000000e-04, 3.2000000000e-04
3533, 8.8000000000e-04, 2.8000000000e-04, 3.2000000000e-04
3534, 9.2000000000e-04, 2.8000000000e-04, 3.2000000000e-04
3535, 9.6000000000e-04, 2.8000000000e-04, 3.2000000000e-04
3536, 1.0000000000e-03, 2.8000000000e-04, 3.2000000000e-04
3537, 0.0000000000e+00, 3.2000000000e-04, 3.2000000000e-04
3538, 4.0000000000e-05, 3.2000000000e-04, 3.2000000000e-04
3539, 8.0000000000e-05, 3.2000000000e-04, 3.2000000000e-04
3540, 1.2000000000e-04, 3.2000000000e-04, 3.2000000000e-04
3541, 1.6000000000e-04, 3.2000000000e-04, 3.2000000000e-04
3542, 2.0000000000e-04, 3.2000000000e-04, 3.2000000000e-04
3543, 2.4000000000e-04, 3.2000000000e-04, 3.2000000000e-04
3544, 2.8000000000e-04, 3.2000000000e-04, 3.2000000000e-04
3545, 3.2000000000e-04, 3.2000000000e-04, 3.2000000000e-04
3546, 3.6000000000e-04, 3.2000000000e-04, 3.2000000000e-04
3547, 4.0000000000e-04, 3.2000000000e-04, 3.2000000000e-04
3548, 4.4000000000e-04, 3.2000000000e-04, 3.2000000000e-04
3549, 4.8000000000e-04, 3.2000000000e-04, 3.2000000000e-04
3550, 5.2000000000e-04, 3.2000000000e-04, 3.2000000000e-04
3551, 5.6000000000e-04, 3.2000000000e-04, 3.2000000000e-04
3552, 6.0000000000e-04, 3.2000000000e-04, 3.2000000000e-04
3553, 6.4000000000e-04, 3.2000000000e-04, 3.2000000000e-04
3554, 6.8000000000e-04, 3.2000000000e-04, 3.2000000000e-04
3555, 7.2000000000e-04, 3.2000000000e-04, 3.2000000000e-04
3556, 7.6000000000e-04, 3.2000000000e-04, 3.2000000000e-04
3557, 8.0000000000e-04, 3.2000000000e-04, 3.2000000000e-04
3558, 8.4000000000e-04, 3.2000000000e-04, 3.2000000000e-04
3559, 8.8000000000e-04, 3.2000000000e-04, 3.2000000000e-04
3560, 9.2000000000e-04, 3.2000000000e-04, 3.2000000000e-04
3561, 9.6000000000e-04, 3.2000000000e-04, 3.2000000000e-04
3562, 1.0000000000e-03, 3.2000000000e-04, 3.2000000000e-04
3563, 0.0000000000e+00, 3.6000000000e-04, 3.2000000000e-04
3564, 4.0000000000e-05, 3.6000000000e-04, 3.2000000000e-04
3565, 8.0000000000e-05, 3.6000000000e-04, 3.2000000000e-04
3566, 1.2000000000e-04, 3.6000000000e-04, 3.2000000000e-04
3567, 1.6000000000e-04, 3.6000000000e-04, 3.2000000000e-04
3568, 2.0000000000e-04, 3.6000000000e-04, 3.2000000000e-04
3569, 2.4000000000e-04, 3.6000000000e-04, 3.2000000000e-04
3570, 2.8000000000e-04, 3.6000000000e-04, 3.2000000000e-04
3571, 3.2000000000e-04, 3.6000000000e-04, 3.2000000000e-04
3572, 3.6000000000e-04, 3.6000000000e-04, 3.2000000000e-04
3573, 4.0000000000e-04, 3.6000000000e-04, 3.2000000000e-04
3574, 4.4000000000e-04, 3.6000000000e-04, 3.2000000000e-04
3575, 4.8000000000e-04, 3.6000000000e-04, 3.2000000000e-04
3576, 5.2000000000e-04, 3.6000000000e-04, 3.2000000000e-04
3577, 5.6000000000e-04, 3.6000000000e-04, 3.2000000000e-04
3578, 6.0000000000e-04, 3.6000000000e-04, 3.2000000000e-04
3579, 6.4000000000e-04, 3.6000000000e-04, 3.2000000000e-04
3580, 6.8000000000e-04, 3.6000000000e-04, 3.2000000000e-04
3581, 7.2000000000e-04, 3.6000000000e-04, 3.2000000000e-04
3582, 7.6000000000e-04, 3.6000000000e-04, 3.2000000000e-04
3583, 8.0000000000e-04, 3.6000000000e-04, 3.2000000000e-04
3584, 8.4000000000e-04, 3.6000000000e-04, 3.2000000000e-04
3585, 8.8000000000e-04, 3.6000000000e-04, 3.2000000000e-04
3586, 9.2000000000e-04, 3.6000000000e-04, 3.2000000000e-04
3587, 9.6000000000e-04, 3.6000000000e-04, 3.2000000000e-04
3588, 1.0000000000e-03, 3.6000000000e-04, 3.2000000000e-04
3589, 0.0000000000e+00, 4.0000000000e-04, 3.2000000000e-04
3590, 4.0000000000e-05, 4.0000000000e-04, 3.2000000000e-04
3591, 8.0000000000e-05, 4.0000000000e-04, 3.2000000000e-04
3592, 1.2000000000e-04, 4.0000000000e-04, 3.2000000000e-04
3593, 1.6000000000e-04, 4.0000000000e-04, 3.2000000000e-04
3594, 2.0000000000e-04, 4.0000000000e-04, 3.2000000000e-04
3595, 2.4000000000e-04, 4.0000000000e-04, 3.2000000000e-04
3596, 2.8000000000e-04, 4.0000000000e-04, 3.2000000000e-04
3597, 3.2000000000e-04, 4.0000000000e-04, 3.2000000000e-04
3598, 3.6000000000e-04, 4.0000000000e-04, 3.2000000000e-04
3599, 4.0000000000e-04, 4.0000000000e-04, 3.2000000000e-04
3600, 4.4000000000e-04, 4.0000000000e-04, 3.2000000000e-04
3601, 4.8000000000e-04, 4.0000000000e-04, 3.2000000000e-04
3602, 5.2000000000e-04, 4.0000000000e-04, 3.2000000000e-04
3603, 5.6000000000e-04, 4.0000000000e-04, 3.2000000000e-04
3604, 6.0000000000e-04, 4.0000000000e-04, 3.2000000000e-04
3605, 6.4000000000e-04, 4.0000000000e-04, 3.2000000000e-04
3606, 6.8000000000e-04, 4.0000000000e-04, 3.2000000000e-04
3607, 7.2000000000e-04, 4.0000000000e-04, 3.2000000000e-04
3608, 7.6000000000e-04, 4.0000000000e-04, 3.2000000000e-04
3609, 8.0000000000e-04, 4.0000000000e-04, 3.2000000000e-04
3610, 8.4000000000e-04, 4.0000000000e-04, 3.2000000000e-04
3611, 8.8000000000e-04, 4.0000000000e-04, 3.2000000000e-04
3612, 9.2000000000e-04, 4.0000000000e-04, 3.2000000000e-04
3613, 9.6000000000e-04, 4.0000000000e-04, 3.2000000000e-04
3614, 1.0000000000e-03, 4.0000000000e-04, 3.2000000000e-04
3615, 0.0000000000e+00, 4.4000000000e-04, 3.2000000000e-04
3616, 4.0000000000e-05, 4.4000000000e-04, 3.2000000000e-04
3617, 8.0000000000e-05, 4.4000000000e-04, 3.2000000000e-04
3618, 1.2000000000e-04, 4.4000000000e-04, 3.2000000000e-04
3619, 1.6000000000e-04, 4.4000000000e-04, 3.2000000000e-04
3620, 2.0000000000e-04, 4.4000000000e-04, 3.2000000000e-04
3621, 2.4000000000e-04, 4.4000000000e-04, 3.2000000000e-04
3622, 2.8000000000e-04, 4.4000000000e-04, 3.2000000000e-04
3623, 3.2000000000e-04, 4.4000000000e-04, 3.2000000000e-04
3624, 3.6000000000e-04, 4.4000000000e-04, 3.2000000000e-04
3625, 4.0000000000e-04, 4.4000000000e-04, 3.2000000000e-04
3626, 4.4000000000e-04, 4.4000000000e-04, 3.2000000000e-04
3627, 4.8000000000e-04, 4.4000000000e-04, 3.2000000000e-04
3628, 5.2000000000e-04, 4.4000000000e-04, 3.2000000000e-04
3629, 5.6000000000e-04, 4.4000000000e-04, 3.2000000000e-04
3630, 6.0000000000e-04, 4.4000000000e-04, 3.2000000000e-04
3631, 6.4000000000e-04, 4.4000000000e-04, 3.2000000000e-04
3632, 6.8000000000e-04, 4.4000000000e-04, 3.2000000000e-04
3633, 7.2000000000e-04, 4.4000000000e-04, 3.2000000000e-04
3634, 7.6000000000e-04, 4.4000000000e-04, 3.2000000000e-04
3635, 8.0000000000e-04, 4.4000000000e-04, 3.2000000000e-04
3636, 8.4000000000e-04, 4.4000000000e-04, 3.2000000000e-04
3637, 8.8000000000e-04, 4.4000000000e-04, 3.2000000000e-04
3638, 9.2000000000e-04, 4.4000000000e-04, 3.2000000000e-04
3639, 9.6000000000e-04, 4.4000000000e-04, 3.2000000000e-04
3640, 1.0000000000e-03, 4.4000000000e-04, 3.2000000000e-04
3641, 0.0000000000e+00, 4.8000000000e-04, 3.2000000000e-04
3642, 4.0000000000e-05, 4.8000000000e-04, 3.2000000000e-04
3643, 8.0000000000e-05, 4.8000000000e-04, 3.2000000000e-04
3644, 1.2000000000e-04, 4.8000000000e-04, 3.2000000000e-04
3645, 1.6000000000e-04, 4.8000000000e-04, 3.2000000000e-04
3646, 2.0000000000e-04, 4.8000000000e-04, 3.2000000000e-04
3647, 2.4000000000e-04, 4.8000000000e-04, 3.2000000000e-04
3648, 2.8000000000e-04, 4.8000000000e-04, 3.2000000000e-04
3649, 3.2000000000e-04, 4.8000000000e-04, 3.2000000000e-04
3650, 3.6000000000e-04, 4.8000000000e-04, 3.2000000000e-04
3651, 4.0000000000e-04, 4.8000000000e-04, 3.2000000000e-04
3652, 4.4000000000e-04, 4.8000000000e-04, 3.2000000000e-04
3653, 4.8000000000e-04, 4.8000000000e-04, 3.2000000000e-04
3654, 5.2000000000e-04, 4.8000000000e-04, 3.2000000000e-04
3655, 5.6000000000e-04, 4.8000000000e-04, 3.2000000000e-04
3656, 6.0000000000e-04, 4.8000000000e-04, 3.2000000000e-04
3657, 6.4000000000e-04, 4.8000000000e-04, 3.2000000000e-04
3658, 6.8000000000e-04, 4.8000000000e-04, 3.2000000000e-04
3659, 7.2000000000e-04, 4.8000000000e-04, 3.2000000000e-04
3660, 7.6000000000e-04, 4.8000000000e-04, 3.2000000000e-04
3661, 8.0000000000e-04, 4.8000000000e-04, 3.2000000000e-04
3662, 8.4000000000e-04, 4.8000000000e-04, 3.2000000000e-04
3663, 8.8000000000e-04, 4.8000000000e-04, 3.2000000000e-04
3664, 9.2000000000e-04, 4.8000000000e-04, 3.2000000000e-04
3665, 9.6000000000e-04, 4.8000000000e-04, 3.2000000000e-04
3666, 1.0000000000e-03, 4.8000000000e-04, 3.2000000000e-04
3667, 0.0000000000e+00, 5.2000000000e-04, 3.2000000000e-04
3668, 4.0000000000e-05, 5.2000000000e-04, 3.2000000000e-04
3669, 8.0000000000e-05, 5.2000000000e-04, 3.2000000000e-04
3670, 1.2000000000e-04, 5.2000000000e-04, 3.2000000000e-04
3671, 1.6000000000e-04, 5.2000000000e-04, 3.2000000000e-04
3672, 2.0000000000e-04, 5.2000000000e-04, 3.2000000000e-04
3673, 2.4000000000e-04, 5.2000000000e-04, 3.2000000000e-04
3674, 2.8000000000e-04, 5.2000000000e-04, 3.2000000000e-04
3675, 3.2000000000e-04, 5.2000000000e-04, 3.2000000000e-04
3676, 3.6000000000e-04, 5.2000000000e-04, 3.2000000000e-04
3677, 4.0000000000e-04, 5.2000000000e-04, 3.2000000000e-04
3678, 4.4000000000e-04, 5.2000000000e-04, 3.2000000000e-04
3679, 4.8000000000e-04, 5.2000000000e-04, 3.2000000000e-04
3680, 5.2000000000e-04, 5.2000000000e-04, 3.2000000000e-04
3681, 5.6000000000e-04, 5.2000000000e-04, 3.2000000000e-04
3682, 6.0000000000e-04, 5.2000000000e-04, 3.2000000000e-04
3683, 6.4000000000e-04, 5.2000000000e-04, 3.2000000000e-04
3684, 6.8000000000e-04, 5.2000000000e-04, 3.2000000000e-04
3685, 7.2000000000e-04, 5.2000000000e-04, 3.2000000000e-04
3686, 7.6000000000e-04, 5.2000000000e-04, 3.2000000000e-04
3687, 8.0000000000e-04, 5.2000000000e-04, 3.2000000000e-04
3688, 8.4000000000e-04, 5.2000000000e-04, 3.2000000000e-04
3689, 8.8000000000e-04, 5.2000000000e-04, 3.2000000000e-04
3690, 9.2000000000e-04, 5.2000000000e-04, 3.2000000000e-04
3691, 9.6000000000e-04, 5.2000000000e-04, 3.2000000000e-04
3692, 1.0000000000e-03, 5.2000000000e-04, 3.2000000000e-04
3693, 0.0000000000e+00, 5.6000000000e-04, 3.2000000000e-04
3694, 4.0000000000e-05, 5.6000000000e-04, 3.2000000000e-04
3695, 8.0000000000e-05, 5.6000000000e-04, 3.2000000000e-04
3696, 1.2000000000e-04, 5.6000000000e-04, 3.2000000000e-04
3697, 1.6000000000e-04, 5.6000000000e-04, 3.2000000000e-04
3698, 2.0000000000e-04, 5.6000000000e-04, 3.2000000000e-04
3699, 2.4000000000e-04, 5.6000000000e-04, 3.2000000000e-04
3700, 2.8000000000e-04, 5.6000000000e-04, 3.2000000000e-04
3701, 3.2000000000e-04, 5.6000000000e-04, 3.2000000000e-04
3702, 3.6000000000e-04, 5.6000000000e-04, 3.2000000000e-04
3703, 4.0000000000e-04, 5.6000000000e-04, 3.2000000000e-04
3704, 4.4000000000e-04, 5.6000000000e-04, 3.2000000000e-04
3705, 4.8000000000e-04, 5.6000000000e-04, 3.2000000000e-04
3706, 5.2000000000e-04, 5.6000000000e-04, 3.2000000000e-04
3707, 5.6000000000e-04, 5.6000000000e-04, 3.2000000000e-04
3708, 6.0000000000e-04, 5.6000000000e-04, 3.2000000000e-04
3709, 6.4000000000e-04, 5.6000000000e-04, 3.2000000000e-04
3710, 6.8000000000e-04, 5.6000000000e-04, 3.2000000000e-04
3711, 7.2000000000e-04, 5.6000000000e-04, 3.2000000000e-04
3712, 7.6000000000e-04, 5.6000000000e-04, 3.2000000000e-04
3713, 8.0000000000e-04, 5.6000000000e-04, 3.2000000000e-04
3714, 8.4000000000e-04, 5.6000000000e-04, 3.2000000000e-04
3715, 8.8000000000e-04, 5.6000000000e-04, 3.2000000000e-04
3716, 9.2000000000e-04, 5.6000000000e-04, 3.2000000000e-04
3717, 9.6000000000e-04, 5.6000000000e-04, 3.2000000000e-04
3718, 1.0000000000e-03, 5.6000000000e-04, 3.2000000000e-04
3719, 0.0000000000e+00, 6.0000000000e-04, 3.2000000000e-04
3720, 4.0000000000e-05, 6.0000000000e-04, 3.2000000000e-04
3721, 8.0000000000e-05, 6.0000000000e-04, 3.2000000000e-04
3722, 1.2000000000e-04, 6.0000000000e-04, 3.2000000000e-04
3723, 1.6000000000e-04, 6.0000000000e-04, 3.2000000000e-04
3724, 2.0000000000e-04, 6.0000000000e-04, 3.2000000000e-04
3725, 2.4000000000e-04, 6.0000000000e-04, 3.2000000000e-04
3726, 2.8000000000e-04, 6.0000000000e-04, 3.2000000000e-04
3727, 3.2000000000e-04, 6.0000000000e-04, 3.2000000000e-04
3728, 3.6000000000e-04, 6.0000000000e-04, 3.2000000000e-04
3729, 4.0000000000e-04, 6.0000000000e-04, 3.2000000000e-04
3730, 4.4000000000e-04, 6.0000000000e-04, 3.2000000000e-04
3731, 4.8000000000e-04, 6.0000000000e-04, 3.2000000000e-04
3732, 5.2000000000e-04, 6.0000000000e-04, 3.2000000000e-04
3733, 5.6000000000e-04, 6.0000000000e-04, 3.2000000000e-04
3734, 6.0000000000e-04, 6.0000000000e-04, 3.2000000000e-04
3735, 6.4000000000e-04, 6.0000000000e-04, 3.2000000000e-04
3736, 6.8000000000e-04, 6.0000000000e-04, 3.2000000000e-04
3737, 7.2000000000e-04, 6.0000000000e-04, 3.2000000000e-04
3738, 7.6000000000e-04, 6.0000000000e-04, 3.2000000000e-04
3739, 8.0000000000e-04, 6.0000000000e-04, 3.2000000000e-04
3740, 8.4000000000e-04, 6.0000000000e-04, 3.2000000000e-04
3741, 8.8000000000e-04, 6.0000000000e-04, 3.2000000000e-04
3742, 9.2000000000e-04, 6.0000000000e-04, 3.2000000000e-04
3743, 9.6000000000e-04, 6.0000000000e-04, 3.2000000000e-04
3744, 1.0000000000e-03, 6.0000000000e-04, 3.2000000000e-04
3745, 0.0000000000e+00, 0.0000000000e+00, 3.6000000000e-04
3746, 4.0000000000e-05, 0.0000000000e+00, 3.6000000000e-04
3747, 8.0000000000e-05, 0.0000000000e+00, 3.6000000000e-04
3748, 1.2000000000e-04, 0.0000000000e+00, 3.6000000000e-04
3749, 1.6000000000e-04, 0.0000000000e+00, 3.6000000000e-04
3750, 2.0000000000e-04, 0.0000000000e+00, 3.6000000000e-04
3751, 2.4000000000e-04, 0.0000000000e+00, 3.6000000000e-04
3752, 2.8000000000e-04, 0.0000000000e+00, 3.6000000000e-04
3753, 3.2000000000e-04, 0.0000000000e+00, 3.6000000000e-04
3754, 3.6000000000e-04, 0.0000000000e+00, 3.6000000000e-04
3755, 4.0000000000e-04, 0.0000000000e+00, 3.6000000000e-04
3756, 4.4000000000e-04, 0.0000000000e+00, 3.6000000000e-04
3757, 4.8000000000e-04, 0.0000000000e+00, 3.6000000000e-04
3758, 5.2000000000e-04, 0.0000000000e+00, 3.6000000000e-04
3759, 5.6000000000e-04, 0.0000000000e+00, 3.6000000000e-04
3760, 6.0000000000e-04, 0.0000000000e+00, 3.6000000000e-04
3761, 6.4000000000e-04, 0.0000000000e+00, 3.6000000000e-04
3762, 6.8000000000e-04, 0.0000000000e+00, 3.6000000000e-04
3763, 7.2000000000e-04, 0.0000000000e+00, 3.6000000000e-04
3764, 7.6000000000e-04, 0.0000000000e+00, 3.6000000000e-04
3765, 8.0000000000e-04, 0.0000000000e+00, 3.6000000000e-04
3766, 8.4000000000e-04, 0.0000000000e+00, 3.6000000000e-04
3767, 8.8000000000e-04, 0.0000000000e+00, 3.6000000000e-04
3768, 9.2000000000e-04, 0.0000000000e+00, 3.6000000000e-04
3769, 9.6000000000e-04, 0.0000000000e+00, 3.6000000000e-04
3770, 1.0000000000e-03, 0.0000000000e+00, 3.6000000000e-04
3771, 0.0000000000e+00, 4.0000000000e-05, 3.6000000000e-04
3772, 4.0000000000e-05, 4.0000000000e-05, 3.6000000000e-04
3773, 8.0000000000e-05, 4.0000000000e-05, 3.6000000000e-04
3774, 1.2000000000e-04, 4.0000000000e-05, 3.6000000000e-04
3775, 1.6000000000e-04, 4.0000000000e-05, 3.6000000000e-04
3776, 2.0000000000e-04, 4.0000000000e-05, 3.6000000000e-04
3777, 2.4000000000e-04, 4.0000000000e-05, 3.6000000000e-04
3778, 2.8000000000e-04, 4.0000000000e-05, 3.6000000000e-04
3779, 3.2000000000e-04, 4.0000000000e-05, 3.6000000000e-04
3780, 3.6000000000e-04, 4.0000000000e-05, 3.6000000000e-04
3781, 4.0000000000e-04, 4.0000000000e-05, 3.6000000000e-04
3782, 4.4000000000e-04, 4.0000000000e-05, 3.6000000000e-04
3783, 4.8000000000e-04, 4.0000000000e-05, 3.6000000000e-04
3784, 5.2000000000e-04, 4.0000000000e-05, 3.6000000000e-04
3785, 5.6000000000e-04, 4.0000000000e-05, 3.6000000000e-04
3786, 6.0000000000e-04, 4.0000000000e-05, 3.6000000000e-04
3787, 6.4000000000e-04, 4.0000000000e-05, 3.6000000000e-04
3788, 6.8000000000e-04, 4.0000000000e-05, 3.6000000000e-04
3789, 7.2000000000e-04, 4.0000000000e-05, 3.6000000000e-04
3790, 7.6000000000e-04, 4.0000000000e-05, 3.6000000000e-04
3791, 8.0000000000e-04, 4.0000000000e-05, 3.6000000000e-04
3792, 8.4000000000e-04, 4.0000000000e-05, 3.6000000000e-04
3793, 8.8000000000e-04, 4.0000000000e-05, 3.6000000000e-04
3794, 9.2000000000e-04, 4.0000000000e-05, 3.6000000000e-04
3795, 9.6000000000e-04, 4.0000000000e-05, 3.6000000000e-04
3796, 1.0000000000e-03, 4.0000000000e-05, 3.6000000000e-04
3797, 0.0000000000e+00, 8.0000000000e-05, 3.6000000000e-04
3798, 4.0000000000e-05, 8.0000000000e-05, 3.6000000000e-04
3799, 8.0000000000e-05, 8.0000000000e-05, 3.6000000000e-04
3800, 1.2000000000e-04, 8.0000000000e-05, 3.6000000000e-04
3801, 1.6000000000e-04, 8.0000000000e-05, 3.6000000000e-04
3802, 2.0000000000e-04, 8.0000000000e-05, 3.6000000000e-04
3803, 2.4000000000e-04, 8.0000000000e-05, 3.6000000000e-04
3804, 2.8000000000e-04, 8.0000000000e-05, 3.6000000000e-04
3805, 3.2000000000e-04, 8.0000000000e-05, 3.6000000000e-04
3806, 3.6000000000e-04, 8.0000000000e-05, 3.6000000000e-04
3807, 4.0000000000e-04, 8.0000000000e-05, 3.6000000000e-04
3808, 4.4000000000e-04, 8.0000000000e-05, 3.6000000000e-04
3809, 4.8000000000e-04, 8.0000000000e-05, 3.6000000000e-04
3810, 5.2000000000e-04, 8.0000000000e-05, 3.6000000000e-04
3811, 5.6000000000e-04, 8.0000000000e-05, 3.6000000000e-04
3812, 6.0000000000e-04, 8.0000000000e-05, 3.6000000000e-04
3813, 6.4000000000e-04, 8.0000000000e-05, 3.6000000000e-04
3814, 6.8000000000e-04, 8.0000000000e-05, 3.6000000000e-04
3815, 7.2000000000e-04, 8.0000000000e-05, 3.6000000000e-04
3816, 7.6000000000e-04, 8.0000000000e-05, 3.6000000000e-04
3817, 8.0000000000e-04, 8.0000000000e-05, 3.6000000000e-04
3818, 8.4000000000e-04, 8.0000000000e-05, 3.6000000000e-04
3819, 8.8000000000e-04, 8.0000000000e-05, 3.6000000000e-04
3820, 9.2000000000e-04, 8.0000000000e-05, 3.6000000000e-04
3821, 9.6000000000e-04, 8.0000000000e-05, 3.6000000000e-04
3822, 1.0000000000e-03, 8.0000000000e-05, 3.6000000000e-04
3823, 0.0000000000e+00, 1.2000000000e-04, 3.6000000000e-04
3824, 4.0000000000e-05, 1.2000000000e-04, 3.6000000000e-04
3825, 8.0000000000e-05, 1.2000000000e-04, 3.6000000000e-04
3826, 1.2000000000e-04, 1.2000000000e-04, 3.6000000000e-04
3827, 1.6000000000e-04, 1.2000000000e-04, 3.6000000000e-04
3828, 2.0000000000e-04, 1.2000000000e-04, 3.6000000000e-04
3829, 2.4000000000e-04, 1.2000000000e-04, 3.6000000000e-04
3830, 2.8000000000e-04, 1.2000000000e-04, 3.6000000000e-04
3831, 3.2000000000e-04, 1.2000000000e-04, 3.6000000000e-04
3832, 3.6000000000e-04, 1.2000000000e-04, 3.6000000000e-04
3833, 4.0000000000e-04, 1.2000000000e-04, 3.6000000000e-04
3834, 4.4000000000e-04, 1.2000000000e-04, 3.6000000000e-04
3835, 4.8000000000e-04, 1.2000000000e-04, 3.6000000000e-04
3836, 5.2000000000e-04, 1.2000000000e-04, 3.6000000000e-04
3837, 5.6000000000e-04, 1.2000000000e-04, 3.6000000000e-04
3838, 6.0000000000e-04, 1.2000000000e-04, 3.6000000000e-04
3839, 6.4000000000e-04, 1.2000000000e-04, 3.6000000000e-04
3840, 6.8000000000e-04, 1.2000000000e-04, 3.6000000000e-04
3841, 7.2000000000e-04, 1.2000000000e-04, 3.6000000000e-04
3842, 7.6000000000e-04, 1.2000000000e-04, 3.6000000000e-04
3843, 8.0000000000e-04, 1.2000000000e-04, 3.6000000000e-04
3844, 8.4000000000e-04, 1.2000000000e-04, 3.6000000000e-04
3845, 8.8000000000e-04, 1.2000000000e-04, 3.6000000000e-04
3846, 9.2000000000e-04, 1.2000000000e-04, 3.6000000000e-04
3847, 9.6000000000e-04, 1.2000000000e-04, 3.6000000000e-04
3848, 1.0000000000e-03, 1.2000000000e-04, 3.6000000000e-04
3849, 0.0000000000e+00, 1.6000000000e-04, 3.6000000000e-04
3850, 4.0000000000e-05, 1.6000000000e-04, 3.6000000000e-04
3851, 8.0000000000e-05, 1.6000000000e-04, 3.6000000000e-04
3852, 1.2000000000e-04, 1.6000000000e-04, 3.6000000000e-04
3853, 1.6000000000e-04, 1.6000000000e-04, 3.6000000000e-04
3854, 2.0000000000e-04, 1.6000000000e-04, 3.6000000000e-04
3855, 2.4000000000e-04, 1.6000000000e-04, 3.6000000000e-04
3856, 2.8000000000e-04, 1.6000000000e-04, 3.6000000000e-04
3857, 3.2000000000e-04, 1.6000000000e-04, 3.6000000000e-04
3858, 3.6000000000e-04, 1.6000000000e-04, 3.6000000000e-04
3859, 4.0000000000e-04, 1.6000000000e-04, 3.6000000000e-04
3860, 4.4000000000e-04, 1.6000000000e-04, 3.6000000000e-04
3861, 4.8000000000e-04, 1.6000000000e-04, 3.6000000000e-04
3862, 5.2000000000e-04, 1.6000000000e-04, 3.6000000000e-04
3863, 5.6000000000e-04, 1.6000000000e-04, 3.6000000000e-04
3864, 6.0000000000e-04, 1.6000000000e-04, 3.6000000000e-04
3865, 6.4000000000e-04, 1.6000000000e-04, 3.6000000000e-04
3866, 6.8000000000e-04, 1.6000000000e-04, 3.6000000000e-04
3867, 7.2000000000e-04, 1.6000000000e-04, 3.6000000000e-04
3868, 7.6000000000e-04, 1.6000000000e-04, 3.6000000000e-04
3869, 8.0000000000e-04, 1.6000000000e-04, 3.6000000000e-04
3870, 8.4000000000e-04, 1.6000000000e-04, 3.6000000000e-04
3871, 8.8000000000e-04, 1.6000000000e-04, 3.6000000000e-04
3872, 9.2000000000e-04, 1.6000000000e-04, 3.6000000000e-04
3873, 9.6000000000e-04, 1.6000000000e-04, 3.6000000000e-04
3874, 1.0000000000e-03, 1.6000000000e-04, 3.6000000000e-04
3875, 0.0000000000e+00, 2.0000000000e-04, 3.6000000000e-04
3876, 4.0000000000e-05, 2.0000000000e-04, 3.6000000000e-04
3877, 8.0000000000e-05, 2.0000000000e-04, 3.6000000000e-04
3878, 1.2000000000e-04, 2.0000000000e-04, 3.6000000000e-04
3879, 1.6000000000e-04, 2.0000000000e-04, 3.6000000000e-04
3880, 2.0000000000e-04, 2.0000000000e-04, 3.6000000000e-04
3881, 2.4000000000e-04, 2.0000000000e-04, 3.6000000000e-04
3882, 2.8000000000e-04, 2.0000000000e-04, 3.6000000000e-04
3883, 3.2000000000e-04, 2.0000000000e-04, 3.6000000000e-04
3884, 3.6000000000e-04, 2.0000000000e-04, 3.6000000000e-04
3885, 4.0000000000e-04, 2.0000000000e-04, 3.6000000000e-04
3886, 4.4000000000e-04, 2.0000000000e-04, 3.6000000000e-04
3887, 4.8000000000e-04, 2.0000000000e-04, 3.6000000000e-04
3888, 5.2000000000e-04, 2.0000000000e-04, 3.6000000000e-04
3889, 5.6000000000e-04, 2.0000000000e-04, 3.6000000000e-04
3890, 6.0000000000e-04, 2.0000000000e-04, 3.6000000000e-04
3891, 6.4000000000e-04, 2.0000000000e-04, 3.6000000000e-04
3892, 6.8000000000e-04, 2.0000000000e-04, 3.6000000000e-04
3893, 7.2000000000e-04, 2.0000000000e-04, 3.6000000000e-04
3894, 7.6000000000e-04, 2.0000000000e-04, 3.6000000000e-04
3895, 8.0000000000e-04, 2.0000000000e-04, 3.6000000000e-04
3896, 8.4000000000e-04, 2.0000000000e-04, 3.6000000000e-04
3897, 8.8000000000e-04, 2.0000000000e-04, 3.6000000000e-04
3898, 9.2000000000e-04, 2.0000000000e-04, 3.6000000000e-04
3899, 9.6000000000e-04, 2.0000000000e-04, 3.6000000000e-04
3900, 1.0000000000e-03, 2.0000000000e-04, 3.6000000000e-04
3901, 0.0000000000e+00, 2.4000000000e-04, 3.6000000000e-04
3902, 4.0000000000e-05, 2.4000000000e-04, 3.6000000000e-04
3903, 8.0000000000e-05, 2.4000000000e-04, 3.6000000000e-04
3904, 1.2000000000e-04, 2.4000000000e-04, 3.6000000000e-04
3905, 1.6000000000e-04, 2.4000000000e-04, 3.6000000000e-04
3906, 2.0000000000e-04, 2.4000000000e-04, 3.6000000000e-04
3907, 2.4000000000e-04, 2.4000000000e-04, 3.6000000000e-04
3908, 2.8000000000e-04, 2.4000000000e-04, 3.6000000000e-04
3909, 3.2000000000e-04, 2.4000000000e-04, 3.6000000000e-04
3910, 3.6000000000e-04, 2.4000000000e-04, 3.6000000000e-04
3911, 4.0000000000e-04, 2.4000000000e-04, 3.6000000000e-04
3912, 4.4000000000e-04, 2.4000000000e-04, 3.6000000000e-04
3913, 4.8000000000e-04, 2.4000000000e-04, 3.6000000000e-04
3914, 5.2000000000e-04, 2.4000000000e-04, 3.6000000000e-04
3915, 5.6000000000e-04, 2.4000000000e-04, 3.6000000000e-04
3916, 6.0000000000e-04, 2.4000000000e-04, 3.6000000000e-04
3917, 6.4000000000e-04, 2.4000000000e-04, 3.6000000000e-04
3918, 6.8000000000e-04, 2.4000000000e-04, 3.6000000000e-04
3919, 7.2000000000e-04, 2.4000000000e-04, 3.6000000000e-04
3920, 7.6000000000e-04, 2.4000000000e-04, 3.6000000000e-04
3921, 8.0000000000e-04, 2.4000000000e-04, 3.6000000000e-04
3922, 8.4000000000e-04, 2.4000000000e-04, 3.6000000000e-04
3923, 8.8000000000e-04, 2.4000000000e-04, 3.6000000000e-04
3924, 9.2000000000e-04, 2.4000000000e-04, 3.6000000000e-04
3925, 9.6000000000e-04, 2.4000000000e-04, 3.6000000000e-04
3926, 1.0000000000e-03, 2.4000000000e-04, 3.6000000000e-04
3927, 0.0000000000e+00, 2.8000000000e-04, 3.6000000000e-04
3928, 4.0000000000e-05, 2.8000000000e-04, 3.6000000000e-04
3929, 8.0000000000e-05, 2.8000000000e-04, 3.6000000000e-04
3930, 1.2000000000e-04, 2.8000000000e-04, 3.6000000000e-04
3931, 1.6000000000e-04, 2.8000000000e-04, 3.6000000000e-04
3932, 2.0000000000e-04, 2.8000000000e-04, 3.6000000000e-04
3933, 2.4000000000e-04, 2.8000000000e-04, 3.6000000000e-04
3934, 2.8000000000e-04, 2.8000000000e-04, 3.6000000000e-04
3935, 3.2000000000e-04, 2.8000000000e-04, 3.6000000000e-04
3936, 3.6000000000e-04, 2.8000000000e-04, 3.6000000000e-04
3937, 4.0000000000e-04, 2.8000000000e-04, 3.6000000000e-04
3938, 4.4000000000e-04, 2.8000000000e-04, 3.6000000000e-04
3939, 4.8000000000e-04, 2.8000000000e-04, 3.6000000000e-04
3940, 5.2000000000e-04, 2.8000000000e-04, 3.6000000000e-04
3941, 5.6000000000e-04, 2.8000000000e-04, 3.6000000000e-04
3942, 6.0000000000e-04, 2.8000000000e-04, 3.6000000000e-04
3943, 6.4000000000e-04, 2.8000000000e-04, 3.6000000000e-04
3944, 6.8000000000e-04, 2.8000000000e-04, 3.6000000000e-04
3945, 7.2000000000e-04, 2.8000000000e-04, 3.6000000000e-04
3946, 7.6000000000e-04, 2.8000000000e-04, 3.6000000000e-04
3947, 8.0000000000e-04, 2.8000000000e-04, 3.6000000000e-04
3948, 8.4000000000e-04, 2.8000000000e-04, 3.6000000000e-04
3949, 8.8000000000e-04, 2.8000000000e-04, 3.6000000000e-04
3950, 9.2000000000e-04, 2.8000000000e-04, 3.6000000000e-04
3951, 9.6000000000e-04, 2.8000000000e-04, 3.6000000000e-04
3952, 1.0000000000e-03, 2.8000000000e-04, 3.6000000000e-04
3953, 0.0000000000e+00, 3.2000000000e-04, 3.6000000000e-04
3954, 4.0000000000e-05, 3.2000000000e-04, 3.6000000000e-04
3955, 8.0000000000e-05, 3.2000000000e-04, 3.6000000000e-04
3956, 1.2000000000e-04, 3.2000000000e-04, 3.6000000000e-04
3957, 1.6000000000e-04, 3.2000000000e-04, 3.6000000000e-04
3958, 2.0000000000e-04, 3.2000000000e-04, 3.6000000000e-04
3959, 2.4000000000e-04, 3.2000000000e-04, 3.6000000000e-04
3960, 2.8000000000e-04, 3.2000000000e-04, 3.6000000000e-04
3961, 3.2000000000e-04, 3.2000000000e-04, 3.6000000000e-04
3962, 3.6000000000e-04, 3.2000000000e-04, 3.6000000000e-04
3963, 4.0000000000e-04, 3.2000000000e-04, 3.6000000000e-04
3964, 4.4000000000e-04, 3.2000000000e-04, 3.6000000000e-04
3965, 4.8000000000e-04, 3.2000000000e-04, 3.6000000000e-04
3966, 5.2000000000e-04, 3.2000000000e-04, 3.6000000000e-04
3967, 5.6000000000e-04, 3.2000000000e-04, 3.6000000000e-04
3968, 6.0000000000e-04, 3.2000000000e-04, 3.6000000000e-04
3969, 6.4000000000e-04, 3.2000000000e-04, 3.6000000000e-04
3970, 6.8000000000e-04, 3.2000000000e-04, 3.6000000000e-04
3971, 7.2000000000e-04, 3.2000000000e-04, 3.6000000000e-04
3972, 7.6000000000e-04, 3.2000000000e-04, 3.6000000000e-04
3973, 8.0000000000e-04, 3.2000000000e-04, 3.6000000000e-04
3974, 8.4000000000e-04, 3.2000000000e-04, 3.6000000000e-04
3975, 8.8000000000e-04, 3.2000000000e-04, 3.6000000000e-04
3976, 9.2000000000e-04, 3.2000000000e-04, 3.6000000000e-04
3977, 9.6000000000e-04, 3.2000000000e-04, 3.6000000000e-04
3978, 1.0000000000e-03, 3.2000000000e-04, 3.6000000000e-04
3979, 0.0000000000e+00, 3.6000000000e-04, 3.6000000000e-04
3980, 4.0000000000e-05, 3.6000000000e-04, 3.6000000000e-04
3981, 8.0000000000e-05, 3.6000000000e-04, 3.6000000000e-04
3982, 1.2000000000e-04, 3.6000000000e-04, 3.6000000000e-04
3983, 1.6000000000e-04, 3.6000000000e-04, 3.6000000000e-04
3984, 2.0000000000e-04, 3.6000000000e-04, 3.6000000000e-04
3985, 2.4000000000e-04, 3.6000000000e-04, 3.6000000000e-04
3986, 2.8000000000e-04, 3.6000000000e-04, 3.6000000000e-04
3987, 3.2000000000e-04, 3.6000000000e-04, 3.6000000000e-04
3988, 3.6000000000e-04, 3.6000000000e-04, 3.6000000000e-04
3989, 4.0000000000e-04, 3.6000000000e-04, 3.6000000000e-04
3990, 4.4000000000e-04, 3.6000000000e-04, 3.6000000000e-04
3991, 4.8000000000e-04, 3.6000000000e-04, 3.6000000000e-04
3992, 5.2000000000e-04, 3.6000000000e-04, 3.6000000000e-04
3993, 5.6000000000e-04, 3.6000000000e-04, 3.6000000000e-04
3994, 6.0000000000e-04, 3.6000000000e-04, 3.6000000000e-04
3995, 6.4000000000e-04, 3.6000000000e-04, 3.6000000000e-04
3996, 6.8000000000e-04, 3.6000000000e-04, 3.6000000000e-04
3997, 7.2000000000e-04, 3.6000000000e-04, 3.6000000000e-04
3998, 7.6000000000e-04, 3.6000000000e-04, 3.6000000000e-04
3999, 8.0000000000e-04, 3.6000000000e-04, 3.6000000000e-04
4000, 8.4000000000e-04, 3.6000000000e-04, 3.6000000000e-04
4001, 8.8000000000e-04, 3.6000000000e-04, 3.6000000000e-04
4002, 9.2000000000e-04, 3.6000000000e-04, 3.6000000000e-04
4003, 9.6000000000e-04, 3.6000000000e-04, 3.6000000000e-04
4004, 1.0000000000e-03, 3.6000000000e-04, 3.6000000000e-04
4005, 0.0000000000e+00, 4.0000000000e-04, 3.6000000000e-04
4006, 4.0000000000e-05, 4.0000000000e-04, 3.6000000000e-04
4007, 8.0000000000e-05, 4.0000000000e-04, 3.6000000000e-04
4008, 1.2000000000e-04, 4.0000000000e-04, 3.6000000000e-04
4009, 1.6000000000e-04, 4.0000000000e-04, 3.6000000000e-04
4010, 2.0000000000e-04, 4.0000000000e-04, 3.6000000000e-04
4011, 2.4000000000e-04, 4.0000000000e-04, 3.6000000000e-04
4012, 2.8000000000e-04, 4.0000000000e-04, 3.6000000000e-04
4013, 3.2000000000e-04, 4.0000000000e-04, 3.6000000000e-04
4014, 3.6000000000e-04, 4.0000000000e-04, 3.6000000000e-04
4015, 4.0000000000e-04, 4.0000000000e-04, 3.6000000000e-04
4016, 4.4000000000e-04, 4.0000000000e-04, 3.6000000000e-04
4017, 4.8000000000e-04, 4.0000000000e-04, 3.6000000000e-04
4018, 5.2000000000e-04, 4.0000000000e-04, 3.6000000000e-04
4019, 5.6000000000e-04, 4.0000000000e-04, 3.6000000000e-04
4020, 6.0000000000e-04, 4.0000000000e-04, 3.6000000000e-04
4021, 6.4000000000e-04, 4.0000000000e-04, 3.6000000000e-04
4022, 6.8000000000e-04, 4.0000000000e-04, 3.6000000000e-04
4023, 7.2000000000e-04, 4.0000000000e-04, 3.6000000000e-04
4024, 7.6000000000e-04, 4.0000000000e-04, 3.6000000000e-04
4025, 8.0000000000e-04, 4.0000000000e-04, 3.6000000000e-04
4026, 8.4000000000e-04, 4.0000000000e-04, 3.6000000000e-04
4027, 8.8000000000e-04, 4.0000000000e-04, 3.6000000000e-04
4028, 9.2000000000e-04, 4.0000000000e-04, 3.6000000000e-04
4029, 9.6000000000e-04, 4.0000000000e-04, 3.6000000000e-04
4030, 1.0000000000e-03, 4.0000000000e-04, 3.6000000000e-04
4031, 0.0000000000e+00, 4.4000000000e-04, 3.6000000000e-04
4032, 4.0000000000e-05, 4.4000000000e-04, 3.6000000000e-04
4033, 8.0000000000e-05, 4.4000000000e-04, 3.6000000000e-04
4034, 1.2000000000e-04, 4.4000000000e-04, 3.6000000000e-04
4035, 1.6000000000e-04, 4.4000000000e-04, 3.6000000000e-04
4036, 2.0000000000e-04, 4.4000000000e-04, 3.6000000000e-04
4037, 2.4000000000e-04, 4.4000000000e-04, 3.6000000000e-04
4038, 2.8000000000e-04, 4.4000000000e-04, 3.6000000000e-04
4039, 3.2000000000e-04, 4.4000000000e-04, 3.6000000000e-04
4040, 3.6000000000e-04, 4.4000000000e-04, 3.6000000000e-04
4041, 4.0000000000e-04, 4.4000000000e-04, 3.6000000000e-04
4042, 4.4000000000e-04, 4.4000000000e-04, 3.6000000000e-04
4043, 4.8000000000e-04, 4.4000000000e-04, 3.6000000000e-04
4044, 5.2000000000e-04, 4.4000000000e-04, 3.6000000000e-04
4045, 5.6000000000e-04, 4.4000000000e-04, 3.6000000000e-04
4046, 6.0000000000e-04, 4.4000000000e-04, 3.6000000000e-04
4047, 6.4000000000e-04, 4.4000000000e-04, 3.6000000000e-04
4048, 6.8000000000e-04, 4.4000000000e-04, 3.6000000000e-04
4049, 7.2000000000e-04, 4.4000000000e-04, 3.6000000000e-04
4050, 7.6000000000e-04, 4.4000000000e-04, 3.6000000000e-04
4051, 8.0000000000e-04, 4.4000000000e-04, 3.6000000000e-04
4052, 8.4000000000e-04, 4.4000000000e-04, 3.6000000000e-04
4053, 8.8000000000e-04, 4.4000000000e-04, 3.6000000000e-04
4054, 9.2000000000e-04, 4.4000000000e-04, 3.6000000000e-04
4055, 9.6000000000e-04, 4.4000000000e-04, 3.6000000000e-04
4056, 1.0000000000e-03, 4.4000000000e-04, 3.6000000000e-04
4057, 0.0000000000e+00, 4.8000000000e-04, 3.6000000000e-04
4058, 4.0000000000e-05, 4.8000000000e-04, 3.6000000000e-04
4059, 8.0000000000e-05, 4.8000000000e-04, 3.6000000000e-04
4060, 1.2000000000e-04, 4.8000000000e-04, 3.6000000000e-04
4061, 1.6000000000e-04, 4.8000000000e-04, 3.6000000000e-04
4062, 2.0000000000e-04, 4.8000000000e-04, 3.6000000000e-04
4063, 2.4000000000e-04, 4.8000000000e-04, 3.6000000000e-04
4064, 2.8000000000e-04, 4.8000000000e-04, 3.6000000000e-04
4065, 3.2000000000e-04, 4.8000000000e-04, 3.6000000000e-04
4066, 3.6000000000e-04, 4.8000000000e-04, 3.6000000000e-04
4067, 4.0000000000e-04, 4.8000000000e-04, 3.6000000000e-04
4068, 4.4000000000e-04, 4.8000000000e-04, 3.6000000000e-04
4069, 4.8000000000e-04, 4.8000000000e-04, 3.6000000000e-04
4070, 5.2000000000e-04, 4.8000000000e-04, 3.6000000000e-04
4071, 5.6000000000e-04, 4.8000000000e-04, 3.6000000000e-04
4072, 6.0000000000e-04, 4.8000000000e-04, 3.6000000000e-04
4073, 6.4000000000e-04, 4.8000000000e-04, 3.6000000000e-04
4074, 6.8000000000e-04, 4.8000000000e-04, 3.6000000000e-04
4075, 7.2000000000e-04, 4.8000000000e-04, 3.6000000000e-04
4076, 7.6000000000e-04, 4.8000000000e-04, 3.6000000000e-04
4077, 8.0000000000e-04, 4.8000000000e-04, 3.6000000000e-04
4078, 8.4000000000e-04, 4.8000000000e-04, 3.6000000000e-04
4079, 8.8000000000e-04, 4.8000000000e-04, 3.6000000000e-04
4080, 9.2000000000e-04, 4.8000000000e-04, 3.6000000000e-04
4081, 9.6000000000e-04, 4.8000000000e-04, 3.6000000000e-04
4082, 1.0000000000e-03, 4.8000000000e-04, 3.6000000000e-04
4083, 0.0000000000e+00, 5.2000000000e-04, 3.6000000000e-04
4084, 4.0000000000e-05, 5.2000000000e-04, 3.6000000000e-04
4085, 8.0000000000e-05, 5.2000000000e-04, 3.6000000000e-04
4086, 1.2000000000e-04, 5.2000000000e-04, 3.6000000000e-04
4087, 1.6000000000e-04, 5.2000000000e-04, 3.6000000000e-04
4088, 2.0000000000e-04, 5.2000000000e-04, 3.6000000000e-04
4089, 2.4000000000e-04, 5.2000000000e-04, 3.6000000000e-04
4090, 2.8000000000e-04, 5.2000000000e-04, 3.6000000000e-04
4091, 3.2000000000e-04, 5.2000000000e-04, 3.6000000000e-04
4092, 3.6000000000e-04, 5.2000000000e-04, 3.6000000000e-04
4093, 4.0000000000e-04, 5.2000000000e-04, 3.6000000000e-04
4094, 4.4000000000e-04, 5.2000000000e-04, 3.6000000000e-04
4095, 4.8000000000e-04, 5.2000000000e-04, 3.6000000000e-04
4096, 5.2000000000e-04, 5.2000000000e-04, 3.6000000000e-04
4097, 5.6000000000e-04, 5.2000000000e-04, 3.6000000000e-04
4098, 6.0000000000e-04, 5.2000000000e-04, 3.6000000000e-04
4099, 6.4000000000e-04, 5.2000000000e-04, 3.6000000000e-04
4100, 6.8000000000e-04, 5.2000000000e-04, 3.6000000000e-04
4101, 7.2000000000e-04, 5.2000000000e-04, 3.6000000000e-04
4102, 7.6000000000e-04, 5.2000000000e-04, 3.6000000000e-04
4103, 8.0000000000e-04, 5.2000000000e-04, 3.6000000000e-04
4104, 8.4000000000e-04, 5.2000000000e-04, 3.6000000000e-04
4105, 8.8000000000e-04, 5.2000000000e-04, 3.6000000000e-04
4106, 9.2000000000e-04, 5.2000000000e-04, 3.6000000000e-04
4107, 9.6000000000e-04, 5.2000000000e-04, 3.6000000000e-04
4108, 1.0000000000e-03, 5.2000000000e-04, 3.6000000000e-04
4109, 0.0000000000e+00, 5.6000000000e-04, 3.6000000000e-04
4110, 4.0000000000e-05, 5.6000000000e-04, 3.6000000000e-04
4111, 8.0000000000e-05, 5.6000000000e-04, 3.6000000000e-04
4112, 1.2000000000e-04, 5.6000000000e-04, 3.6000000000e-04
4113, 1.6000000000e-04, 5.6000000000e-04, 3.6000000000e-04
4114, 2.0000000000e-04, 5.6000000000e-04, 3.6000000000e-04
4115, 2.4000000000e-04, 5.6000000000e-04, 3.6000000000e-04
4116, 2.8000000000e-04, 5.6000000000e-04, 3.6000000000e-04
4117, 3.2000000000e-04, 5.6000000000e-04, 3.6000000000e-04
4118, 3.6000000000e-04, 5.6000000000e-04, 3.6000000000e-04
4119, 4.0000000000e-04, 5.6000000000e-04, 3.6000000000e-04
4120, 4.4000000000e-04, 5.6000000000e-04, 3.6000000000e-04
4121, 4.8000000000e-04, 5.6000000000e-04, 3.6000000000e-04
4122, 5.2000000000e-04, 5.6000000000e-04, 3.6000000000e-04
4123, 5.6000000000e-04, 5.6000000000e-04, 3.6000000000e-04
4124, 6.0000000000e-04, 5.6000000000e-04, 3.6000000000e-04
4125, 6.4000000000e-04, 5.6000000000e-04, 3.6000000000e-04
4126, 6.8000000000e-04, 5.6000000000e-04, 3.6000000000e-04
4127, 7.2000000000e-04, 5.6000000000e-04, 3.6000000000e-04
4128, 7.6000000000e-04, 5.6000000000e-04, 3.6000000000e-04
4129, 8.0000000000e-04, 5.6000000000e-04, 3.6000000000e-04
4130, 8.4000000000e-04, 5.6000000000e-04, 3.6000000000e-04
4131, 8.8000000000e-04, 5.6000000000e-04, 3.6000000000e-04
4132, 9.2000000000e-04, 5.6000000000e-04, 3.6000000000e-04
4133, 9.6000000000e-04, 5.6000000000e-04, 3.6000000000e-04
4134, 1.0000000000e-03, 5.6000000000e-04, 3.6000000000e-04
4135, 0.0000000000e+00, 6.0000000000e-04, 3.6000000000e-04
4136, 4.0000000000e-05, 6.0000000000e-04, 3.6000000000e-04
4137, 8.0000000000e-05, 6.0000000000e-04, 3.6000000000e-04
4138, 1.2000000000e-04, 6.0000000000e-04, 3.6000000000e-04
4139, 1.6000000000e-04, 6.0000000000e-04, 3.6000000000e-04
4140, 2.0000000000e-04, 6.0000000000e-04, 3.6000000000e-04
4141, 2.4000000000e-04, 6.0000000000e-04, 3.6000000000e-04
4142, 2.8000000000e-04, 6.0000000000e-04, 3.6000000000e-04
4143, 3.2000000000e-04, 6.0000000000e-04, 3.6000000000e-04
4144, 3.6000000000e-04, 6.0000000000e-04, 3.6000000000e-04
4145, 4.0000000000e-04, 6.0000000000e-04, 3.6000000000e-04
4146, 4.4000000000e-04, 6.0000000000e-04, 3.6000000000e-04
4147, 4.8000000000e-04, 6.0000000000e-04, 3.6000000000e-04
4148, 5.2000000000e-04, 6.0000000000e-04, 3.6000000000e-04
4149, 5.6000000000e-04, 6.0000000000e-04, 3.6000000000e-04
4150, 6.0000000000e-04, 6.0000000000e-04, 3.6000000000e-04
4151, 6.4000000000e-04, 6.0000000000e-04, 3.6000000000e-04
4152, 6.8000000000e-04, 6.0000000000e-04, 3.6000000000e-04
4153, 7.2000000000e-04, 6.0000000000e-04, 3.6000000000e-04
4154, 7.6000000000e-04, 6.0000000000e-04, 3.6000000000e-04
4155, 8.0000000000e-04, 6.0000000000e-04, 3.6000000000e-04
4156, 8.4000000000e-04, 6.0000000000e-04, 3.6000000000e-04
4157, 8.8000000000e-04, 6.0000000000e-04, 3.6000000000e-04
4158, 9.2000000000e-04, 6.0000000000e-04, 3.6000000000e-04
4159, 9.6000000000e-04, 6.0000000000e-04, 3.6000000000e-04
4160, 1.0000000000e-03, 6.0000000000e-04, 3.6000000000e-04
4161, 0.0000000000e+00, 0.0000000000e+00, 4.0000000000e-04
4162, 4.0000000000e-05, 0.0000000000e+00, 4.0000000000e-04
4163, 8.0000000000e-05, 0.0000000000e+00, 4.0000000000e-04
4164, 1.2000000000e-04, 0.0000000000e+00, 4.0000000000e-04
4165, 1.6000000000e-04, 0.0000000000e+00, 4.0000000000e-04
4166, 2.0000000000e-04, 0.0000000000e+00, 4.0000000000e-04
4167, 2.4000000000e-04, 0.0000000000e+00, 4.0000000000e-04
4168, 2.8000000000e-04, 0.0000000000e+00, 4.0000000000e-04
4169, 3.2000000000e-04, 0.0000000000e+00, 4.0000000000e-04
4170, 3.6000000000e-04, 0.0000000000e+00, 4.0000000000e-04
4171, 4.0000000000e-04, 0.0000000000e+00, 4.0000000000e-04
4172, 4.4000000000e-04, 0.0000000000e+00, 4.0000000000e-04
4173, 4.8000000000e-04, 0.0000000000e+00, 4.0000000000e-04
4174, 5.2000000000e-04, 0.0000000000e+00, 4.0000000000e-04
4175, 5.6000000000e-04, 0.0000000000e+00, 4.0000000000e-04
4176, 6.0000000000e-04, 0.0000000000e+00, 4.0000000000e-04
4177, 6.4000000000e-04, 0.0000000000e+00, 4.0000000000e-04
4178, 6.8000000000e-04, 0.0000000000e+00, 4.0000000000e-04
4179, 7.2000000000e-04, 0.0000000000e+00, 4.0000000000e-04
4180, 7.6000000000e-04, 0.0000000000e+00, 4.0000000000e-04
4181, 8.0000000000e-04, 0.0000000000e+00, 4.0000000000e-04
4182, 8.4000000000e-04, 0.0000000000e+00, 4.0000000000e-04
4183, 8.8000000000e-04, 0.0000000000e+00, 4.0000000000e-04
4184, 9.2000000000e-04, 0.0000000000e+00, 4.0000000000e-04
4185, 9.6000000000e-04, 0.0000000000e+00, 4.0000000000e-04
4186, 1.0000000000e-03, 0.0000000000e+00, 4.0000000000e-04
4187, 0.0000000000e+00, 4.0000000000e-05, 4.0000000000e-04
4188, 4.0000000000e-05, 4.0000000000e-05, 4.0000000000e-04
4189, 8.0000000000e-05, 4.0000000000e-05, 4.0000000000e-04
4190, 1.2000000000e-04, 4.0000000000e-05, 4.0000000000e-04
4191, 1.6000000000e-04, 4.0000000000e-05, 4.0000000000e-04
4192, 2.0000000000e-04, 4.0000000000e-05, 4.0000000000e-04
4193, 2.4000000000e-04, 4.0000000000e-05, 4.0000000000e-04
4194, 2.8000000000e-04, 4.0000000000e-05, 4.0000000000e-04
4195, 3.2000000000e-04, 4.0000000000e-05, 4.0000000000e-04
4196, 3.6000000000e-04, 4.0000000000e-05, 4.0000000000e-04
4197, 4.0000000000e-04, 4.0000000000e-05, 4.0000000000e-04
4198, 4.4000000000e-04, 4.0000000000e-05, 4.0000000000e-04
4199, 4.8000000000e-04, 4.0000000000e-05, 4.0000000000e-04
4200, 5.2000000000e-04, 4.0000000000e-05, 4.0000000000e-04
4201, 5.6000000000e-04, 4.0000000000e-05, 4.0000000000e-04
4202, 6.0000000000e-04, 4.0000000000e-05, 4.0000000000e-04
4203, 6.4000000000e-04, 4.0000000000e-05, 4.0000000000e-04
4204, 6.8000000000e-04, 4.0000000000e-05, 4.0000000000e-04
4205, 7.2000000000e-04, 4.0000000000e-05, 4.0000000000e-04
4206, 7.6000000000e-04, 4.0000000000e-05, 4.0000000000e-04
4207, 8.0000000000e-04, 4.0000000000e-05, 4.0000000000e-04
4208, 8.4000000000e-04, 4.0000000000e-05, 4.0000000000e-04
4209, 8.8000000000e-04, 4.0000000000e-05, 4.0000000000e-04
4210, 9.2000000000e-04, 4.0000000000e-05, 4.0000000000e-04
4211, 9.6000000000e-04, 4.0000000000e-05, 4.0000000000e-04
4212, 1.0000000000e-03, 4.0000000000e-05, 4.0000000000e-04
4213, 0.0000000000e+00, 8.0000000000e-05, 4.0000000000e-04
4214, 4.0000000000e-05, 8.0000000000e-05, 4.0000000000e-04
4215, 8.0000000000e-05, 8.0000000000e-05, 4.0000000000e-04
4216, 1.2000000000e-04, 8.0000000000e-05, 4.0000000000e-04
4217, 1.6000000000e-04, 8.0000000000e-05, 4.0000000000e-04
4218, 2.0000000000e-04, 8.0000000000e-05, 4.0000000000e-04
4219, 2.4000000000e-04, 8.0000000000e-05, 4.0000000000e-04
4220, 2.8000000000e-04, 8.0000000000e-05, 4.0000000000e-04
4221, 3.2000000000e-04, 8.0000000000e-05, 4.0000000000e-04
4222, 3.6000000000e-04, 8.0000000000e-05, 4.0000000000e-04
4223, 4.0000000000e-04, 8.0000000000e-05, 4.0000000000e-04
4224, 4.4000000000e-04, 8.0000000000e-05, 4.0000000000e-04
4225, 4.8000000000e-04, 8.0000000000e-05, 4.0000000000e-04
4226, 5.2000000000e-04, 8.0000000000e-05, 4.0000000000e-04
4227, 5.6000000000e-04, 8.0000000000e-05, 4.0000000000e-04
4228, 6.0000000000e-04, 8.0000000000e-05, 4.0000000000e-04
4229, 6.4000000000e-04, 8.0000000000e-05, 4.0000000000e-04
4230, 6.8000000000e-04, 8.0000000000e-05, 4.0000000000e-04
4231, 7.2000000000e-04, 8.0000000000e-05, 4.0000000000e-04
4232, 7.6000000000e-04, 8.0000000000e-05, 4.0000000000e-04
4233, 8.0000000000e-04, 8.0000000000e-05, 4.0000000000e-04
4234, 8.4000000000e-04, 8.0000000000e-05, 4.0000000000e-04
4235, 8.8000000000e-04, 8.0000000000e-05, 4.0000000000e-04
4236, 9.2000000000e-04, 8.0000000000e-05, 4.0000000000e-04
4237, 9.6000000000e-04, 8.0000000000e-05, 4.0000000000e-04
4238, 1.0000000000e-03, 8.0000000000e-05, 4.0000000000e-04
4239, 0.0000000000e+00, 1.2000000000e-04, 4.0000000000e-04
4240, 4.0000000000e-05, 1.2000000000e-04, 4.0000000000e-04
4241, 8.0000000000e-05, 1.2000000000e-04, 4.0000000000e-04
4242, 1.2000000000e-04, 1.2000000000e-04, 4.0000000000e-04
4243, 1.6000000000e-04, 1.2000000000e-04, 4.0000000000e-04
4244, 2.0000000000e-04, 1.2000000000e-04, 4.0000000000e-04
4245, 2.4000000000e-04, 1.2000000000e-04, 4.0000000000e-04
4246, 2.8000000000e-04, 1.2000000000e-04, 4.0000000000e-04
4247, 3.2000000000e-04, 1.2000000000e-04, 4.0000000000e-04
4248, 3.6000000000e-04, 1.2000000000e-04, 4.0000000000e-04
4249, 4.0000000000e-04, 1.2000000000e-04, 4.0000000000e-04
4250, 4.4000000000e-04, 1.2000000000e-04, 4.0000000000e-04
4251, 4.8000000000e-04, 1.2000000000e-04, 4.0000000000e-04
4252, 5.2000000000e-04, 1.2000000000e-04, 4.0000000000e-04
4253, 5.6000000000e-04, 1.2000000000e-04, 4.0000000000e-04
4254, 6.0000000000e-04, 1.2000000000e-04, 4.0000000000e-04
4255, 6.4000000000e-04, 1.2000000000e-04, 4.0000000000e-04
4256, 6.8000000000e-04, 1.2000000000e-04, 4.0000000000e-04
4257, 7.2000000000e-04, 1.2000000000e-04, 4.0000000000e-04
4258, 7.6000000000e-04, 1.2000000000e-04, 4.0000000000e-04
4259, 8.0000000000e-04, 1.2000000000e-04, 4.0000000000e-04
4260, 8.4000000000e-04, 1.2000000000e-04, 4.0000000000e-04
4261, 8.8000000000e-04, 1.2000000000e-04, 4.0000000000e-04
4262, 9.2000000000e-04, 1.2000000000e-04, 4.0000000000e-04
4263, 9.6000000000e-04, 1.2000000000e-04, 4.0000000000e-04
4264, 1.0000000000e-03, 1.2000000000e-04, 4.0000000000e-04
4265, 0.0000000000e+00, 1.6000000000e-04, 4.0000000000e-04
4266, 4.0000000000e-05, 1.6000000000e-04, 4.0000000000e-04
4267, 8.0000000000e-05, 1.6000000000e-04, 4.0000000000e-04
4268, 1.2000000000e-04, 1.6000000000e-04, 4.0000000000e-04
4269, 1.6000000000e-04, 1.6000000000e-04, 4.0000000000e-04
4270, 2.0000000000e-04, 1.6000000000e-04, 4.0000000000e-04
4271, 2.4000000000e-04, 1.6000000000e-04, 4.0000000000e-04
4272, 2.8000000000e-04, 1.6000000000e-04, 4.0000000000e-04
4273, 3.2000000000e-04, 1.6000000000e-04, 4.0000000000e-04
4274, 3.6000000000e-04, 1.6000000000e-04, 4.0000000000e-04
4275, 4.0000000000e-04, 1.6000000000e-04, 4.0000000000e-04
4276, 4.4000000000e-04, 1.6000000000e-04, 4.0000000000e-04
4277, 4.8000000000e-04, 1.6000000000e-04, 4.0000000000e-04
4278, 5.2000000000e-04, 1.6000000000e-04, 4.0000000000e-04
4279, 5.6000000000e-04, 1.6000000000e-04, 4.0000000000e-04
4280, 6.0000000000e-04, 1.6000000000e-04, 4.0000000000e-04
4281, 6.4000000000e-04, 1.6000000000e-04, 4.0000000000e-04
4282, 6.8000000000e-04, 1.6000000000e-04, 4.0000000000e-04
4283, 7.2000000000e-04, 1.6000000000e-04, 4.0000000000e-04
4284, 7.6000000000e-04, 1.6000000000e-04, 4.0000000000e-04
4285, 8.0000000000e-04, 1.6000000000e-04, 4.0000000000e-04
4286, 8.4000000000e-04, 1.6000000000e-04, 4.0000000000e-04
4287, 8.8000000000e-04, 1.6000000000e-04, 4.0000000000e-04
4288, 9.2000000000e-04, 1.6000000000e-04, 4.0000000000e-04
4289, 9.6000000000e-04, 1.6000000000e-04, 4.0000000000e-04
4290, 1.0000000000e-03, 1.6000000000e-04, 4.0000000000e-04
4291, 0.0000000000e+00, 2.0000000000e-04, 4.0000000000e-04
4292, 4.0000000000e-05, 2.0000000000e-04, 4.0000000000e-04
4293, 8.0000000000e-05, 2.0000000000e-04, 4.0000000000e-04
4294, 1.2000000000e-04, 2.0000000000e-04, 4.0000000000e-04
4295, 1.6000000000e-04, 2.0000000000e-04, 4.0000000000e-04
4296, 2.0000000000e-04, 2.0000000000e-04, 4.0000000000e-04
4297, 2.4000000000e-04, 2.0000000000e-04, 4.0000000000e-04
4298, 2.8000000000e-04, 2.0000000000e-04, 4.0000000000e-04
4299, 3.2000000000e-04, 2.0000000000e-04, 4.0000000000e-04
4300, 3.6000000000e-04, 2.0000000000e-04, 4.0000000000e-04
4301, 4.0000000000e-04, 2.0000000000e-04, 4.0000000000e-04
4302, 4.4000000000e-04, 2.0000000000e-04, 4.0000000000e-04
4303, 4.8000000000e-04, 2.0000000000e-04, 4.0000000000e-04
4304, 5.2000000000e-04, 2.0000000000e-04, 4.0000000000e-04
4305, 5.6000000000e-04, 2.0000000000e-04, 4.0000000000e-04
4306, 6.0000000000e-04, 2.0000000000e-04, 4.0000000000e-04
4307, 6.4000000000e-04, 2.0000000000e-04, 4.0000000000e-04
4308, 6.8000000000e-04, 2.0000000000e-04, 4.0000000000e-04
4309, 7.2000000000e-04, 2.0000000000e-04, 4.0000000000e-04
4310, 7.6000000000e-04, 2.0000000000e-04, 4.0000000000e-04
4311, 8.0000000000e-04, 2.0000000000e-04, 4.0000000000e-04
4312, 8.4000000000e-04, 2.0000000000e-04, 4.0000000000e-04
4313, 8.8000000000e-04, 2.0000000000e-04, 4.0000000000e-04
4314, 9.2000000000e-04, 2.0000000000e-04, 4.0000000000e-04
4315, 9.6000000000e-04, 2.0000000000e-04, 4.0000000000e-04
4316, 1.0000000000e-03, 2.0000000000e-04, 4.0000000000e-04
4317, 0.0000000000e+00, 2.4000000000e-04, 4.0000000000e-04
4318, 4.0000000000e-05, 2.4000000000e-04, 4.0000000000e-04
4319, 8.0000000000e-05, 2.4000000000e-04, 4.0000000000e-04
4320, 1.2000000000e-04, 2.4000000000e-04, 4.0000000000e-04
4321, 1.6000000000e-04, 2.4000000000e-04, 4.0000000000e-04
4322, 2.0000000000e-04, 2.4000000000e-04, 4.0000000000e-04
4323, 2.4000000000e-04, 2.4000000000e-04, 4.0000000000e-04
4324, 2.8000000000e-04, 2.4000000000e-04, 4.0000000000e-04
4325, 3.2000000000e-04, 2.4000000000e-04, 4.0000000000e-04
4326, 3.6000000000e-04, 2.4000000000e-04, 4.0000000000e-04
4327, 4.0000000000e-04, 2.4000000000e-04, 4.0000000000e-04
4328, 4.4000000000e-04, 2.4000000000e-04, 4.0000000000e-04
4329, 4.8000000000e-04, 2.4000000000e-04, 4.0000000000e-04
4330, 5.2000000000e-04, 2.4000000000e-04, 4.0000000000e-04
4331, 5.6000000000e-04, 2.4000000000e-04, 4.0000000000e-04
4332, 6.0000000000e-04, 2.4000000000e-04, 4.0000000000e-04
4333, 6.4000000000e-04, 2.4000000000e-04, 4.0000000000e-04
4334, 6.8000000000e-04, 2.4000000000e-04, 4.0000000000e-04
4335, 7.2000000000e-04, 2.4000000000e-04, 4.0000000000e-04
4336, 7.6000000000e-04, 2.4000000000e-04, 4.0000000000e-04
4337, 8.0000000000e-04, 2.4000000000e-04, 4.0000000000e-04
4338, 8.4000000000e-04, 2.4000000000e-04, 4.0000000000e-04
4339, 8.8000000000e-04, 2.4000000000e-04, 4.0000000000e-04
4340, 9.2000000000e-04, 2.4000000000e-04, 4.0000000000e-04
4341, 9.6000000000e-04, 2.4000000000e-04, 4.0000000000e-04
4342, 1.0000000000e-03, 2.4000000000e-04, 4.0000000000e-04
4343, 0.0000000000e+00, 2.8000000000e-04, 4.0000000000e-04
4344, 4.0000000000e-05, 2.8000000000e-04, 4.0000000000e-04
4345, 8.0000000000e-05, 2.8000000000e-04, 4.0000000000e-04
4346, 1.2000000000e-04, 2.8000000000e-04, 4.0000000000e-04
4347, 1.6000000000e-04, 2.8000000000e-04, 4.0000000000e-04
4348, 2.0000000000e-04, 2.8000000000e-04, 4.0000000000e-04
4349, 2.4000000000e-04, 2.8000000000e-04, 4.0000000000e-04
4350, 2.8000000000e-04, 2.8000000000e-04, 4.0000000000e-04
4351, 3.2000000000e-04, 2.8000000000e-04, 4.0000000000e-04
4352, 3.6000000000e-04, 2.8000000000e-04, 4.0000000000e-04
4353, 4.0000000000e-04, 2.8000000000e-04, 4.0000000000e-04
4354, 4.4000000000e-04, 2.8000000000e-04, 4.0000000000e-04
4355, 4.8000000000e-04, 2.8000000000e-04, 4.0000000000e-04
4356, 5.2000000000e-04, 2.8000000000e-04, 4.0000000000e-04
4357, 5.6000000000e-04, 2.8000000000e-04, 4.0000000000e-04
4358, 6.0000000000e-04, 2.8000000000e-04, 4.0000000000e-04
4359, 6.4000000000e-04, 2.8000000000e-04, 4.0000000000e-04
4360, 6.8000000000e-04, 2.8000000000e-04, 4.0000000000e-04
4361, 7.2000000000e-04, 2.8000000000e-04, 4.0000000000e-04
4362, 7.6000000000e-04, 2.8000000000e-04, 4.0000000000e-04
4363, 8.0000000000e-04, 2.8000000000e-04, 4.0000000000e-04
4364, 8.4000000000e-04, 2.8000000000e-04, 4.0000000000e-04
4365, 8.8000000000e-04, 2.8000000000e-04, 4.0000000000e-04
4366, 9.2000000000e-04, 2.8000000000e-04, 4.0000000000e-04
4367, 9.6000000000e-04, 2.8000000000e-04, 4.0000000000e-04
4368, 1.0000000000e-03, 2.8000000000e-04, 4.0000000000e-04
4369, 0.0000000000e+00, 3.2000000000e-04, 4.0000000000e-04
4370, 4.0000000000e-05, 3.2000000000e-04, 4.0000000000e-04
4371, 8.0000000000e-05, 3.2000000000e-04, 4.0000000000e-04
4372, 1.2000000000e-04, 3.2000000000e-04, 4.0000000000e-04
4373, 1.6000000000e-04, 3.2000000000e-04, 4.0000000000e-04
4374, 2.0000000000e-04, 3.2000000000e-04, 4.0000000000e-04
4375, 2.4000000000e-04, 3.2000000000e-04, 4.0000000000e-04
4376, 2.8000000000e-04, 3.2000000000e-04, 4.0000000000e-04
4377, 3.2000000000e-04, 3.2000000000e-04, 4.0000000000e-04
4378, 3.6000000000e-04, 3.2000000000e-04, 4.0000000000e-04
4379, 4.0000000000e-04, 3.2000000000e-04, 4.0000000000e-04
4380, 4.4000000000e-04, 3.2000000000e-04, 4.0000000000e-04
4381, 4.8000000000e-04, 3.2000000000e-04, 4.0000000000e-04
4382, 5.2000000000e-04, 3.2000000000e-04, 4.0000000000e-04
4383, 5.6000000000e-04, 3.2000000000e-04, 4.0000000000e-04
4384, 6.0000000000e-04, 3.2000000000e-04, 4.0000000000e-04
4385, 6.4000000000e-04, 3.2000000000e-04, 4.0000000000e-04
4386, 6.8000000000e-04, 3.2000000000e-04, 4.0000000000e-04
4387, 7.2000000000e-04, 3.2000000000e-04, 4.0000000000e-04
4388, 7.6000000000e-04, 3.2000000000e-04, 4.0000000000e-04
4389, 8.0000000000e-04, 3.2000000000e-04, 4.0000000000e-04
4390, 8.4000000000e-04, 3.2000000000e-04, 4.0000000000e-04
4391, 8.8000000000e-04, 3.2000000000e-04, 4.0000000000e-04
4392, 9.2000000000e-04, 3.2000000000e-04, 4.0000000000e-04
4393, 9.6000000000e-04, 3.2000000000e-04, 4.0000000000e-04
4394, 1.0000000000e-03, 3.2000000000e-04, 4.0000000000e-04
4395, 0.0000000000e+00, 3.6000000000e-04, 4.0000000000e-04
4396, 4.0000000000e-05, 3.6000000000e-04, 4.0000000000e-04
4397, 8.0000000000e-05, 3.6000000000e-04, 4.0000000000e-04
4398, 1.2000000000e-04, 3.6000000000e-04, 4.0000000000e-04
4399, 1.6000000000e-04, 3.6000000000e-04, 4.0000000000e-04
4400, 2.0000000000e-04, 3.6000000000e-04, 4.0000000000e-04
4401, 2.4000000000e-04, 3.6000000000e-04, 4.0000000000e-04
4402, 2.8000000000e-04, 3.6000000000e-04, 4.0000000000e-04
4403, 3.2000000000e-04, 3.6000000000e-04, 4.0000000000e-04
4404, 3.6000000000e-04, 3.6000000000e-04, 4.0000000000e-04
4405, 4.0000000000e-04, 3.6000000000e-04, 4.0000000000e-04
4406, 4.4000000000e-04, 3.6000000000e-04, 4.0000000000e-04
4407, 4.8000000000e-04, 3.6000000000e-04, 4.0000000000e-04
4408, 5.2000000000e-04, 3.6000000000e-04, 4.0000000000e-04
4409, 5.6000000000e-04, 3.6000000000e-04, 4.0000000000e-04
4410, 6.0000000000e-04, 3.6000000000e-04, 4.0000000000e-04
4411, 6.4000000000e-04, 3.6000000000e-04, 4.0000000000e-04
4412, 6.8000000000e-04, 3.6000000000e-04, 4.0000000000e-04
4413, 7.2000000000e-04, 3.6000000000e-04, 4.0000000000e-04
4414, 7.6000000000e-04, 3.6000000000e-04, 4.0000000000e-04
4415, 8.0000000000e-04, 3.6000000000e-04, 4.0000000000e-04
4416, 8.4000000000e-04, 3.6000000000e-04, 4.0000000000e-04
4417, 8.8000000000e-04, 3.6000000000e-04, 4.0000000000e-04
4418, 9.2000000000e-04, 3.6000000000e-04, 4.0000000000e-04
4419, 9.6000000000e-04, 3.6000000000e-04, 4.0000000000e-04
4420, 1.0000000000e-03, 3.6000000000e-04, 4.0000000000e-04
4421, 0.0000000000e+00, 4.0000000000e-04, 4.0000000000e-04
4422, 4.0000000000e-05, 4.0000000000e-04, 4.0000000000e-04
4423, 8.0000000000e-05, 4.0000000000e-04, 4.0000000000e-04
4424, 1.2000000000e-04, 4.0000000000e-04, 4.0000000000e-04
4425, 1.6000000000e-04, 4.0000000000e-04, 4.0000000000e-04
4426, 2.0000000000e-04, 4.0000000000e-04, 4.0000000000e-04
4427, 2.4000000000e-04, 4.0000000000e-04, 4.0000000000e-04
4428, 2.8000000000e-04, 4.0000000000e-04, 4.0000000000e-04
4429, 3.2000000000e-04, 4.0000000000e-04, 4.0000000000e-04
4430, 3.6000000000e-04, 4.0000000000e-04, 4.0000000000e-04
4431, 4.0000000000e-04, 4.0000000000e-04, 4.0000000000e-04
4432, 4.4000000000e-04, 4.0000000000e-04, 4.0000000000e-04
4433, 4.8000000000e-04, 4.0000000000e-04, 4.0000000000e-04
4434, 5.2000000000e-04, 4.0000000000e-04, 4.0000000000e-04
4435, 5.6000000000e-04, 4.0000000000e-04, 4.0000000000e-04
4436, 6.0000000000e-04, 4.0000000000e-04, 4.0000000000e-04
4437, 6.4000000000e-04, 4.0000000000e-04, 4.0000000000e-04
4438, 6.8000000000e-04, 4.0000000000e-04, 4.0000000000e-04
4439, 7.2000000000e-04, 4.0000000000e-04, 4.0000000000e-04
4440, 7.6000000000e-04, 4.0000000000e-04, 4.0000000000e-04
4441, 8.0000000000e-04, 4.0000000000e-04, 4.0000000000e-04
4442, 8.4000000000e-04, 4.0000000000e-04, 4.0000000000e-04
4443, 8.8000000000e-04, 4.0000000000e-04, 4.0000000000e-04
4444, 9.2000000000e-04, 4.0000000000e-04, 4.0000000000e-04
4445, 9.6000000000e-04, 4.0000000000e-04, 4.0000000000e-04
4446, 1.0000000000e-03, 4.0000000000e-04, 4.0000000000e-04
4447, 0.0000000000e+00, 4.4000000000e-04, 4.0000000000e-04
4448, 4.0000000000e-05, 4.4000000000e-04, 4.0000000000e-04
4449, 8.0000000000e-05, 4.4000000000e-04, 4.0000000000e-04
4450, 1.2000000000e-04, 4.4000000000e-04, 4.0000000000e-04
4451, 1.6000000000e-04, 4.4000000000e-04, 4.0000000000e-04
4452, 2.0000000000e-04, 4.4000000000e-04, 4.0000000000e-04
4453, 2.4000000000e-04, 4.4000000000e-04, 4.0000000000e-04
4454, 2.8000000000e-04, 4.4000000000e-04, 4.0000000000e-04
4455, 3.2000000000e-04, 4.4000000000e-04, 4.0000000000e-04
4456, 3.6000000000e-04, 4.4000000000e-04, 4.0000000000e-04
4457, 4.0000000000e-04, 4.4000000000e-04, 4.0000000000e-04
4458, 4.4000000000e-04, 4.4000000000e-04, 4.0000000000e-04
4459, 4.8000000000e-04, 4.4000000000e-04, 4.0000000000e-04
4460, 5.2000000000e-04, 4.4000000000e-04, 4.0000000000e-04
4461, 5.6000000000e-04, 4.4000000000e-04, 4.0000000000e-04
4462, 6.0000000000e-04, 4.4000000000e-04, 4.0000000000e-04
4463, 6.4000000000e-04, 4.4000000000e-04, 4.0000000000e-04
4464, 6.8000000000e-04, 4.4000000000e-04, 4.0000000000e-04
4465, 7.2000000000e-04, 4.4000000000e-04, 4.0000000000e-04
4466, 7.6000000000e-04, 4.4000000000e-04, 4.0000000000e-04
4467, 8.0000000000e-04, 4.4000000000e-04, 4.0000000000e-04
4468, 8.4000000000e-04, 4.4000000000e-04, 4.0000000000e-04
4469, 8.8000000000e-04, 4.4000000000e-04, 4.0000000000e-04
4470, 9.2000000000e-04, 4.4000000000e-04, 4.0000000000e-04
4471, 9.6000000000e-04, 4.4000000000e-04, 4.0000000000e-04
4472, 1.0000000000e-03, 4.4000000000e-04, 4.0000000000e-04
4473, 0.0000000000e+00, 4.8000000000e-04, 4.0000000000e-04
4474, 4.0000000000e-05, 4.8000000000e-04, 4.0000000000e-04
4475, 8.0000000000e-05, 4.8000000000e-04, 4.0000000000e-04
4476, 1.2000000000e-04, 4.8000000000e-04, 4.0000000000e-04
4477, 1.6000000000e-04, 4.8000000000e-04, 4.0000000000e-04
4478, 2.0000000000e-04, 4.8000000000e-04, 4.0000000000e-04
4479, 2.4000000000e-04, 4.8000000000e-04, 4.0000000000e-04
4480, 2.8000000000e-04, 4.8000000000e-04, 4.0000000000e-04
4481, 3.2000000000e-04, 4.8000000000e-04, 4.0000000000e-04
4482, 3.6000000000e-04, 4.8000000000e-04, 4.0000000000e-04
4483, 4.0000000000e-04, 4.8000000000e-04, 4.0000000000e-04
4484, 4.4000000000e-04, 4.8000000000e-04, 4.0000000000e-04
4485, 4.8000000000e-04, 4.8000000000e-04, 4.0000000000e-04
4486, 5.2000000000e-04, 4.8000000000e-04, 4.0000000000e-04
4487, 5.6000000000e-04, 4.8000000000e-04, 4.0000000000e-04
4488, 6.0000000000e-04, 4.8000000000e-04, 4.0000000000e-04
4489, 6.4000000000e-04, 4.8000000000e-04, 4.0000000000e-04
4490, 6.8000000000e-04, 4.8000000000e-04, 4.0000000000e-04
4491, 7.2000000000e-04, 4.8000000000e-04, 4.0000000000e-04
4492, 7.6000000000e-04, 4.8000000000e-04, 4.0000000000e-04
4493, 8.0000000000e-04, 4.8000000000e-04, 4.0000000000e-04
4494, 8.4000000000e-04, 4.8000000000e-04, 4.0000000000e-04
4495, 8.8000000000e-04, 4.8000000000e-04, 4.0000000000e-04
4496, 9.2000000000e-04, 4.8000000000e-04, 4.0000000000e-04
4497, 9.6000000000e-04, 4.8000000000e-04, 4.0000000000e-04
4498, 1.0000000000e-03, 4.8000000000e-04, 4.0000000000e-04
4499, 0.0000000000e+00, 5.2000000000e-04, 4.0000000000e-04
4500, 4.0000000000e-05, 5.2000000000e-04, 4.0000000000e-04
4501, 8.0000000000e-05, 5.2000000000e-04, 4.0000000000e-04
4502, 1.2000000000e-04, 5.2000000000e-04, 4.0000000000e-04
4503, 1.6000000000e-04, 5.2000000000e-04, 4.0000000000e-04
4504, 2.0000000000e-04, 5.2000000000e-04, 4.0000000000e-04
4505, 2.4000000000e-04, 5.2000000000e-04, 4.0000000000e-04
4506, 2.8000000000e-04, 5.2000000000e-04, 4.0000000000e-04
4507, 3.2000000000e-04, 5.2000000000e-04, 4.0000000000e-04
4508, 3.6000000000e-04, 5.2000000000e-04, 4.0000000000e-04
4509, 4.0000000000e-04, 5.2000000000e-04, 4.0000000000e-04
4510, 4.4000000000e-04, 5.2000000000e-04, 4.0000000000e-04
4511, 4.8000000000e-04, 5.2000000000e-04, 4.0000000000e-04
4512, 5.2000000000e-04, 5.2000000000e-04, 4.0000000000e-04
4513, 5.6000000000e-04, 5.2000000000e-04, 4.0000000000e-04
4514, 6.0000000000e-04, 5.2000000000e-04, 4.0000000000e-04
4515, 6.4000000000e-04, 5.2000000000e-04, 4.0000000000e-04
4516, 6.8000000000e-04, 5.2000000000e-04, 4.0000000000e-04
4517, 7.2000000000e-04, 5.2000000000e-04, 4.0000000000e-04
4518, 7.6000000000e-04, 5.2000000000e-04, 4.0000000000e-04
4519, 8.0000000000e-04, 5.2000000000e-04, 4.0000000000e-04
4520, 8.4000000000e-04, 5.2000000000e-04, 4.0000000000e-04
4521, 8.8000000000e-04, 5.2000000000e-04, 4.0000000000e-04
4522, 9.2000000000e-04, 5.2000000000e-04, 4.0000000000e-04
4523, 9.6000000000e-04, 5.2000000000e-04, 4.0000000000e-04
4524, 1.0000000000e-03, 5.2000000000e-04, 4.0000000000e-04
4525, 0.0000000000e+00, 5.6000000000e-04, 4.0000000000e-04
4526, 4.0000000000e-05, 5.6000000000e-04, 4.0000000000e-04
4527, 8.0000000000e-05, 5.6000000000e-04, 4.0000000000e-04
4528, 1.2000000000e-04, 5.6000000000e-04, 4.0000000000e-04
4529, 1.6000000000e-04, 5.6000000000e-04, 4.0000000000e-04
4530, 2.0000000000e-04, 5.6000000000e-04, 4.0000000000e-04
4531, 2.4000000000e-04, 5.6000000000e-04, 4.0000000000e-04
4532, 2.8000000000e-04, 5.6000000000e-04, 4.0000000000e-04
4533, 3.2000000000e-04, 5.6000000000e-04, 4.0000000000e-04
4534, 3.6000000000e-04, 5.6000000000e-04, 4.0000000000e-04
4535, 4.0000000000e-04, 5.6000000000e-04, 4.0000000000e-04
4536, 4.4000000000e-04, 5.6000000000e-04, 4.0000000000e-04
4537, 4.8000000000e-04, 5.6000000000e-04, 4.0000000000e-04
4538, 5.2000000000e-04, 5.6000000000e-04, 4.0000000000e-04
4539, 5.6000000000e-04, 5.6000000000e-04, 4.0000000000e-04
4540, 6.0000000000e-04, 5.6000000000e-04, 4.0000000000e-04
4541, 6.4000000000e-04, 5.6000000000e-04, 4.0000000000e-04
4542, 6.8000000000e-04, 5.6000000000e-04, 4.0000000000e-04
4543, 7.2000000000e-04, 5.6000000000e-04, 4.0000000000e-04
4544, 7.6000000000e-04, 5.6000000000e-04, 4.0000000000e-04
4545, 8.0000000000e-04, 5.6000000000e-04, 4.0000000000e-04
4546, 8.4000000000e-04, 5.6000000000e-04, 4.0000000000e-04
4547, 8.8000000000e-04, 5.6000000000e-04, 4.0000000000e-04
4548, 9.2000000000e-04, 5.6000000000e-04, 4.0000000000e-04
4549, 9.6000000000e-04, 5.6000000000e-04, 4.0000000000e-04
4550, 1.0000000000e-03, 5.6000000000e-04, 4.0000000000e-04
4551, 0.0000000000e+00, 6.0000000000e-04, 4.0000000000e-04
4552, 4.0000000000e-05, 6.0000000000e-04, 4.0000000000e-04
4553, 8.0000000000e-05, 6.0000000000e-04, 4.0000000000e-04
4554, 1.2000000000e-04, 6.0000000000e-04, 4.0000000000e-04
4555, 1.6000000000e-04, 6.0000000000e-04, 4.0000000000e-04
4556, 2.0000000000e-04, 6.0000000000e-04, 4.0000000000e-04
4557, 2.4000000000e-04, 6.0000000000e-04, 4.0000000000e-04
4558, 2.8000000000e-04, 6.0000000000e-04, 4.0000000000e-04
4559, 3.2000000000e-04, 6.0000000000e-04, 4.0000000000e-04
4560, 3.6000000000e-04, 6.0000000000e-04, 4.0000000000e-04
4561, 4.0000000000e-04, 6.0000000000e-04, 4.0000000000e-04
4562, 4.4000000000e-04, 6.0000000000e-04, 4.0000000000e-04
4563, 4.8000000000e-04, 6.0000000000e-04, 4.0000000000e-04
4564, 5.2000000000e-04, 6.0000000000e-04, 4.0000000000e-04
4565, 5.6000000000e-04, 6.0000000000e-04, 4.0000000000e-04
4566, 6.0000000000e-04, 6.0000000000e-04, 4.0000000000e-04
4567, 6.4000000000e-04, 6.0000000000e-04, 4.0000000000e-04
4568, 6.8000000000e-04, 6.0000000000e-04, 4.0000000000e-04
4569, 7.2000000000e-04, 6.0000000000e-04, 4.0000000000e-04
4570, 7.6000000000e-04, 6.0000000000e-04, 4.0000000000e-04
4571, 8.0000000000e-04, 6.0000000000e-04, 4.0000000000e-04
4572, 8.4000000000e-04, 6.0000000000e-04, 4.0000000000e-04
4573, 8.8000000000e-04, 6.0000000000e-04, 4.0000000000e-04
4574, 9.2000000000e-04, 6.0000000000e-04, 4.0000000000e-04
4575, 9.6000000000e-04, 6.0000000000e-04, 4.0000000000e-04
4576, 1.0000000000e-03, 6.0000000000e-04, 4.0000000000e-04
4577, 0.0000000000e+00, 0.0000000000e+00, 4.4000000000e-04
4578, 4.0000000000e-05, 0.0000000000e+00, 4.4000000000e-04
4579, 8.0000000000e-05, 0.0000000000e+00, 4.4000000000e-04
4580, 1.2000000000e-04, 0.0000000000e+00, 4.4000000000e-04
4581, 1.6000000000e-04, 0.0000000000e+00, 4.4000000000e-04
4582, 2.0000000000e-04, 0.0000000000e+00, 4.4000000000e-04
4583, 2.4000000000e-04, 0.0000000000e+00, 4.4000000000e-04
4584, 2.8000000000e-04, 0.0000000000e+00, 4.4000000000e-04
4585, 3.2000000000e-04, 0.0000000000e+00, 4.4000000000e-04
4586, 3.6000000000e-04, 0.0000000000e+00, 4.4000000000e-04
4587, 4.0000000000e-04, 0.0000000000e+00, 4.4000000000e-04
4588, 4.4000000000e-04, 0.0000000000e+00, 4.4000000000e-04
4589, 4.8000000000e-04, 0.0000000000e+00, 4.4000000000e-04
4590, 5.2000000000e-04, 0.0000000000e+00, 4.4000000000e-04
4591, 5.6000000000e-04, 0.0000000000e+00, 4.4000000000e-04
4592, 6.0000000000e-04, 0.0000000000e+00, 4.4000000000e-04
4593, 6.4000000000e-04, 0.0000000000e+00, 4.4000000000e-04
4594, 6.8000000000e-04, 0.0000000000e+00, 4.4000000000e-04
4595, 7.2000000000e-04, 0.0000000000e+00, 4.4000000000e-04
4596, 7.6000000000e-04, 0.0000000000e+00, 4.4000000000e-04
4597, 8.0000000000e-04, 0.0000000000e+00, 4.4000000000e-04
4598, 8.4000000000e-04, 0.0000000000e+00, 4.4000000000e-04
4599, 8.8000000000e-04, 0.0000000000e+00, 4.4000000000e-04
4600, 9.2000000000e-04, 0.0000000000e+00, 4.4000000000e-04
4601, 9.6000000000e-04, 0.0000000000e+00, 4.4000000000e-04
4602, 1.0000000000e-03, 0.0000000000e+00, 4.4000000000e-04
4603, 0.0000000000e+00, 4.0000000000e-05, 4.4000000000e-04
4604, 4.0000000000e-05, 4.0000000000e-05, 4.4000000000e-04
4605, 8.0000000000e-05, 4.0000000000e-05, 4.4000000000e-04
4606, 1.2000000000e-04, 4.0000000000e-05, 4.4000000000e-04
4607, 1.6000000000e-04, 4.0000000000e-05, 4.4000000000e-04
4608, 2.0000000000e-04, 4.0000000000e-05, 4.4000000000e-04
4609, 2.4000000000e-04, 4.0000000000e-05, 4.4000000000e-04
4610, 2.8000000000e-04, 4.0000000000e-05, 4.4000000000e-04
4611, 3.2000000000e-04, 4.0000000000e-05, 4.4000000000e-04
4612, 3.6000000000e-04, 4.0000000000e-05, 4.4000000000e-04
4613, 4.0000000000e-04, 4.0000000000e-05, 4.4000000000e-04
4614, 4.4000000000e-04, 4.0000000000e-05, 4.4000000000e-04
4615, 4.8000000000e-04, 4.0000000000e-05, 4.4000000000e-04
4616, 5.2000000000e-04, 4.0000000000e-05, 4.4000000000e-04
4617, 5.6000000000e-04, 4.0000000000e-05, 4.4000000000e-04
4618, 6.0000000000e-04, 4.0000000000e-05, 4.4000000000e-04
4619, 6.4000000000e-04, 4.0000000000e-05, 4.4000000000e-04
4620, 6.8000000000e-04, 4.0000000000e-05, 4.4000000000e-04
4621, 7.2000000000e-04, 4.0000000000e-05, 4.4000000000e-04
4622, 7.6000000000e-04, 4.0000000000e-05, 4.4000000000e-04
4623, 8.0000000000e-04, 4.0000000000e-05, 4.4000000000e-04
4624, 8.4000000000e-04, 4.0000000000e-05, 4.4000000000e-04
4625, 8.8000000000e-04, 4.0000000000e-05, 4.4000000000e-04
4626, 9.2000000000e-04, 4.0000000000e-05, 4.4000000000e-04
4627, 9.6000000000e-04, 4.0000000000e-05, 4.4000000000e-04
4628, 1.0000000000e-03, 4.0000000000e-05, 4.4000000000e-04
4629, 0.0000000000e+00, 8.0000000000e-05, 4.4000000000e-04
4630, 4.0000000000e-05, 8.0000000000e-05, 4.4000000000e-04
4631, 8.0000000000e-05, 8.0000000000e-05, 4.4000000000e-04
4632, 1.2000000000e-04, 8.0000000000e-05, 4.4000000000e-04
4633, 1.6000000000e-04, 8.0000000000e-05, 4.4000000000e-04
4634, 2.0000000000e-04, 8.0000000000e-05, 4.4000000000e-04
4635, 2.4000000000e-04, 8.0000000000e-05, 4.4000000000e-04
4636, 2.8000000000e-04, 8.0000000000e-05, 4.4000000000e-04
4637, 3.2000000000e-04, 8.0000000000e-05, 4.4000000000e-04
4638, 3.6000000000e-04, 8.0000000000e-05, 4.4000000000e-04
4639, 4.0000000000e-04, 8.0000000000e-05, 4.4000000000e-04
4640, 4.4000000000e-04, 8.0000000000e-05, 4.4000000000e-04
4641, 4.8000000000e-04, 8.0000000000e-05, 4.4000000000e-04
4642, 5.2000000000e-04, 8.0000000000e-05, 4.4000000000e-04
4643, 5.6000000000e-04, 8.0000000000e-05, 4.4000000000e-04
4644, 6.0000000000e-04, 8.0000000000e-05, 4.4000000000e-04
4645, 6.4000000000e-04, 8.0000000000e-05, 4.4000000000e-04
4646, 6.8000000000e-04, 8.0000000000e-05, 4.4000000000e-04
4647, 7.2000000000e-04, 8.0000000000e-05, 4.4000000000e-04
4648, 7.6000000000e-04, 8.0000000000e-05, 4.4000000000e-04
4649, 8.0000000000e-04, 8.0000000000e-05, 4.4000000000e-04
4650, 8.4000000000e-04, 8.0000000000e-05, 4.4000000000e-04
4651, 8.8000000000e-04, 8.0000000000e-05, 4.4000000000e-04
4652, 9.2000000000e-04, 8.0000000000e-05, 4.4000000000e-04
4653, 9.6000000000e-04, 8.0000000000e-05, 4.4000000000e-04
4654, 1.0000000000e-03, 8.0000000000e-05, 4.4000000000e-04
4655, 0.0000000000e+00, 1.2000000000e-04, 4.4000000000e-04
4656, 4.0000000000e-05, 1.2000000000e-04, 4.4000000000e-04
4657, 8.0000000000e-05, 1.2000000000e-04, 4.4000000000e-04
4658, 1.2000000000e-04, 1.2000000000e-04, 4.4000000000e-04
4659, 1.6000000000e-04, 1.2000000000e-04, 4.4000000000e-04
4660, 2.0000000000e-04, 1.2000000000e-04, 4.4000000000e-04
4661, 2.4000000000e-04, 1.2000000000e-04, 4.4000000000e-04
4662, 2.8000000000e-04, 1.2000000000e-04, 4.4000000000e-04
4663, 3.2000000000e-04, 1.2000000000e-04, 4.4000000000e-04
4664, 3.6000000000e-04, 1.2000000000e-04, 4.4000000000e-04
4665, 4.0000000000e-04, 1.2000000000e-04, 4.4000000000e-04
4666, 4.4000000000e-04, 1.2000000000e-04, 4.4000000000e-04
4667, 4.8000000000e-04, 1.2000000000e-04, 4.4000000000e-04
4668, 5.2000000000e-04, 1.2000000000e-04, 4.4000000000e-04
4669, 5.6000000000e-04, 1.2000000000e-04, 4.4000000000e-04
4670, 6.0000000000e-04, 1.2000000000e-04, 4.4000000000e-04
4671, 6.4000000000e-04, 1.2000000000e-04, 4.4000000000e-04
4672, 6.8000000000e-04, 1.2000000000e-04, 4.4000000000e-04
4673, 7.2000000000e-04, 1.2000000000e-04, 4.4000000000e-04
4674, 7.6000000000e-04, 1.2000000000e-04, 4.4000000000e-04
4675, 8.0000000000e-04, 1.2000000000e-04, 4.4000000000e-04
4676, 8.4000000000e-04, 1.2000000000e-04, 4.4000000000e-04
4677, 8.8000000000e-04, 1.2000000000e-04, 4.4000000000e-04
4678, 9.2000000000e-04, 1.2000000000e-04, 4.4000000000e-04
4679, 9.6000000000e-04, 1.2000000000e-04, 4.4000000000e-04
4680, 1.0000000000e-03, 1.2000000000e-04, 4.4000000000e-04
4681, 0.0000000000e+00, 1.6000000000e-04, 4.4000000000e-04
4682, 4.0000000000e-05, 1.6000000000e-04, 4.4000000000e-04
4683, 8.0000000000e-05, 1.6000000000e-04, 4.4000000000e-04
4684, 1.2000000000e-04, 1.6000000000e-04, 4.4000000000e-04
4685, 1.6000000000e-04, 1.6000000000e-04, 4.4000000000e-04
4686, 2.0000000000e-04, 1.6000000000e-04, 4.4000000000e-04
4687, 2.4000000000e-04, 1.6000000000e-04, 4.4000000000e-04
4688, 2.8000000000e-04, 1.6000000000e-04, 4.4000000000e-04
4689, 3.2000000000e-04, 1.6000000000e-04, 4.4000000000e-04
4690, 3.6000000000e-04, 1.6000000000e-04, 4.4000000000e-04
4691, 4.0000000000e-04, 1.6000000000e-04, 4.4000000000e-04
4692, 4.4000000000e-04, 1.6000000000e-04, 4.4000000000e-04
4693, 4.8000000000e-04, 1.6000000000e-04, 4.4000000000e-04
4694, 5.2000000000e-04, 1.6000000000e-04, 4.4000000000e-04
4695, 5.6000000000e-04, 1.6000000000e-04, 4.4000000000e-04
4696, 6.0000000000e-04, 1.6000000000e-04, 4.4000000000e-04
4697, 6.4000000000e-04, 1.6000000000e-04, 4.4000000000e-04
4698, 6.8000000000e-04, 1.6000000000e-04, 4.4000000000e-04
4699, 7.2000000000e-04, 1.6000000000e-04, 4.4000000000e-04
4700, 7.6000000000e-04, 1.6000000000e-04, 4.4000000000e-04
4701, 8.0000000000e-04, 1.6000000000e-04, 4.4000000000e-04
4702, 8.4000000000e-04, 1.6000000000e-04, 4.4000000000e-04
4703, 8.8000000000e-04, 1.6000000000e-04, 4.4000000000e-04
4704, 9.2000000000e-04, 1.6000000000e-04, 4.4000000000e-04
4705, 9.6000000000e-04, 1.6000000000e-04, 4.4000000000e-04
4706, 1.0000000000e-03, 1.6000000000e-04, 4.4000000000e-04
4707, 0.0000000000e+00, 2.0000000000e-04, 4.4000000000e-04
4708, 4.0000000000e-05, 2.0000000000e-04, 4.4000000000e-04
4709, 8.0000000000e-05, 2.0000000000e-04, 4.4000000000e-04
4710, 1.2000000000e-04, 2.0000000000e-04, 4.4000000000e-04
4711, 1.6000000000e-04, 2.0000000000e-04, 4.4000000000e-04
4712, 2.0000000000e-04, 2.0000000000e-04, 4.4000000000e-04
4713, 2.4000000000e-04, 2.0000000000e-04, 4.4000000000e-04
4714, 2.8000000000e-04, 2.0000000000e-04, 4.4000000000e-04
4715, 3.2000000000e-04, 2.0000000000e-04, 4.4000000000e-04
4716, 3.6000000000e-04, 2.0000000000e-04, 4.4000000000e-04
4717, 4.0000000000e-04, 2.0000000000e-04, 4.4000000000e-04
4718, 4.4000000000e-04, 2.0000000000e-04, 4.4000000000e-04
4719, 4.8000000000e-04, 2.0000000000e-04, 4.4000000000e-04
4720, 5.2000000000e-04, 2.0000000000e-04, 4.4000000000e-04
4721, 5.6000000000e-04, 2.0000000000e-04, 4.4000000000e-04
4722, 6.0000000000e-04, 2.0000000000e-04, 4.4000000000e-04
4723, 6.4000000000e-04, 2.0000000000e-04, 4.4000000000e-04
4724, 6.8000000000e-04, 2.0000000000e-04, 4.4000000000e-04
4725, 7.2000000000e-04, 2.0000000000e-04, 4.4000000000e-04
4726, 7.6000000000e-04, 2.0000000000e-04, 4.4000000000e-04
4727, 8.0000000000e-04, 2.0000000000e-04, 4.4000000000e-04
4728, 8.4000000000e-04, 2.0000000000e-04, 4.4000000000e-04
4729, 8.8000000000e-04, 2.0000000000e-04, 4.4000000000e-04
4730, 9.2000000000e-04, 2.0000000000e-04, 4.4000000000e-04
4731, 9.6000000000e-04, 2.0000000000e-04, 4.4000000000e-04
4732, 1.0000000000e-03, 2.0000000000e-04, 4.4000000000e-04
4733, 0.0000000000e+00, 2.4000000000e-04, 4.4000000000e-04
4734, 4.0000000000e-05, 2.4000000000e-04, 4.4000000000e-04
4735, 8.0000000000e-05, 2.4000000000e-04, 4.4000000000e-04
4736, 1.2000000000e-04, 2.4000000000e-04, 4.4000000000e-04
4737, 1.6000000000e-04, 2.4000000000e-04, 4.4000000000e-04
4738, 2.0000000000e-04, 2.4000000000e-04, 4.4000000000e-04
4739, 2.4000000000e-04, 2.4000000000e-04, 4.4000000000e-04
4740, 2.8000000000e-04, 2.4000000000e-04, 4.4000000000e-04
4741, 3.2000000000e-04, 2.4000000000e-04, 4.4000000000e-04
4742, 3.6000000000e-04, 2.4000000000e-04, 4.4000000000e-04
4743, 4.0000000000e-04, 2.4000000000e-04, 4.4000000000e-04
4744, 4.4000000000e-04, 2.4000000000e-04, 4.4000000000e-04
4745, 4.8000000000e-04, 2.4000000000e-04, 4.4000000000e-04
4746, 5.2000000000e-04, 2.4000000000e-04, 4.4000000000e-04
4747, 5.6000000000e-04, 2.4000000000e-04, 4.4000000000e-04
4748, 6.0000000000e-04, 2.4000000000e-04, 4.4000000000e-04
4749, 6.4000000000e-04, 2.4000000000e-04, 4.4000000000e-04
4750, 6.8000000000e-04, 2.4000000000e-04, 4.4000000000e-04
4751, 7.2000000000e-04, 2.4000000000e-04, 4.4000000000e-04
4752, 7.6000000000e-04, 2.4000000000e-04, 4.4000000000e-04
4753, 8.0000000000e-04, 2.4000000000e-04, 4.4000000000e-04
4754, 8.4000000000e-04, 2.4000000000e-04, 4.4000000000e-04
4755, 8.8000000000e-04, 2.4000000000e-04, 4.4000000000e-04
4756, 9.2000000000e-04, 2.4000000000e-04, 4.4000000000e-04
4757, 9.6000000000e-04, 2.4000000000e-04, 4.4000000000e-04
4758, 1.0000000000e-03, 2.4000000000e-04, 4.4000000000e-04
4759, 0.0000000000e+00, 2.8000000000e-04, 4.4000000000e-04
4760, 4.0000000000e-05, 2.8000000000e-04, 4.4000000000e-04
4761, 8.0000000000e-05, 2.8000000000e-04, 4.4000000000e-04
4762, 1.2000000000e-04, 2.8000000000e-04, 4.4000000000e-04
4763, 1.6000000000e-04, 2.8000000000e-04, 4.4000000000e-04
4764, 2.0000000000e-04, 2.8000000000e-04, 4.4000000000e-04
4765, 2.4000000000e-04, 2.8000000000e-04, 4.4000000000e-04
4766, 2.8000000000e-04, 2.8000000000e-04, 4.4000000000e-04
4767, 3.2000000000e-04, 2.8000000000e-04, 4.4000000000e-04
4768, 3.6000000000e-04, 2.8000000000e-04, 4.4000000000e-04
4769, 4.0000000000e-04, 2.8000000000e-04, 4.4000000000e-04
4770, 4.4000000000e-04, 2.8000000000e-04, 4.4000000000e-04
4771, 4.8000000000e-04, 2.8000000000e-04, 4.4000000000e-04
4772, 5.2000000000e-04, 2.8000000000e-04, 4.4000000000e-04
4773, 5.6000000000e-04, 2.8000000000e-04, 4.4000000000e-04
4774, 6.0000000000e-04, 2.8000000000e-04, 4.4000000000e-04
4775, 6.4000000000e-04, 2.8000000000e-04, 4.4000000000e-04
4776, 6.8000000000e-04, 2.8000000000e-04, 4.4000000000e-04
4777, 7.2000000000e-04, 2.8000000000e-04, 4.4000000000e-04
4778, 7.6000000000e-04, 2.8000000000e-04, 4.4000000000e-04
4779, 8.0000000000e-04, 2.8000000000e-04, 4.4000000000e-04
4780, 8.4000000000e-04, 2.8000000000e-04, 4.4000000000e-04
4781, 8.8000000000e-04, 2.8000000000e-04, 4.4000000000e-04
4782, 9.2000000000e-04, 2.8000000000e-04, 4.4000000000e-04
4783, 9.6000000000e-04, 2.8000000000e-04, 4.4000000000e-04
4784, 1.0000000000e-03, 2.8000000000e-04, 4.4000000000e-04
4785, 0.0000000000e+00, 3.2000000000e-04, 4.4000000000e-04
4786, 4.0000000000e-05, 3.2000000000e-04, 4.4000000000e-04
4787, 8.0000000000e-05, 3.2000000000e-04, 4.4000000000e-04
4788, 1.2000000000e-04, 3.2000000000e-04, 4.4000000000e-04
4789, 1.6000000000e-04, 3.2000000000e-04, 4.4000000000e-04
4790, 2.0000000000e-04, 3.2000000000e-04, 4.4000000000e-04
4791, 2.4000000000e-04, 3.2000000000e-04, 4.4000000000e-04
4792, 2.8000000000e-04, 3.2000000000e-04, 4.4000000000e-04
4793, 3.2000000000e-04, 3.2000000000e-04, 4.4000000000e-04
4794, 3.6000000000e-04, 3.2000000000e-04, 4.4000000000e-04
4795, 4.0000000000e-04, 3.2000000000e-04, 4.4000000000e-04
4796, 4.4000000000e-04, 3.2000000000e-04, 4.4000000000e-04
4797, 4.8000000000e-04, 3.2000000000e-04, 4.4000000000e-04
4798, 5.2000000000e-04, 3.2000000000e-04, 4.4000000000e-04
4799, 5.6000000000e-04, 3.2000000000e-04, 4.4000000000e-04
4800, 6.0000000000e-04, 3.2000000000e-04, 4.4000000000e-04
4801, 6.4000000000e-04, 3.2000000000e-04, 4.4000000000e-04
4802, 6.8000000000e-04, 3.2000000000e-04, 4.4000000000e-04
4803, 7.2000000000e-04, 3.2000000000e-04, 4.4000000000e-04
4804, 7.6000000000e-04, 3.2000000000e-04, 4.4000000000e-04
4805, 8.0000000000e-04, 3.2000000000e-04, 4.4000000000e-04
4806, 8.4000000000e-04, 3.2000000000e-04, 4.4000000000e-04
4807, 8.8000000000e-04, 3.2000000000e-04, 4.4000000000e-04
4808, 9.2000000000e-04, 3.2000000000e-04, 4.4000000000e-04
4809, 9.6000000000e-04, 3.2000000000e-04, 4.4000000000e-04
4810, 1.0000000000e-03, 3.2000000000e-04, 4.4000000000e-04
4811, 0.0000000000e+00, 3.6000000000e-04, 4.4000000000e-04
4812, 4.0000000000e-05, 3.6000000000e-04, 4.4000000000e-04
4813, 8.0000000000e-05, 3.6000000000e-04, 4.4000000000e-04
4814, 1.2000000000e-04, 3.6000000000e-04, 4.4000000000e-04
4815, 1.6000000000e-04, 3.6000000000e-04, 4.4000000000e-04
4816, 2.0000000000e-04, 3.6000000000e-04, 4.4000000000e-04
4817, 2.4000000000e-04, 3.6000000000e-04, 4.4000000000e-04
4818, 2.8000000000e-04, 3.6000000000e-04, 4.4000000000e-04
4819, 3.2000000000e-04, 3.6000000000e-04, 4.4000000000e-04
4820, 3.6000000000e-04, 3.6000000000e-04, 4.4000000000e-04
4821, 4.0000000000e-04, 3.6000000000e-04, 4.4000000000e-04
4822, 4.4000000000e-04, 3.6000000000e-04, 4.4000000000e-04
4823, 4.8000000000e-04, 3.6000000000e-04, 4.4000000000e-04
4824, 5.2000000000e-04, 3.6000000000e-04, 4.4000000000e-04
4825, 5.6000000000e-04, 3.6000000000e-04, 4.4000000000e-04
4826, 6.0000000000e-04, 3.6000000000e-04, 4.4000000000e-04
4827, 6.4000000000e-04, 3.6000000000e-04, 4.4000000000e-04
4828, 6.8000000000e-04, 3.6000000000e-04, 4.4000000000e-04
4829, 7.2000000000e-04, 3.6000000000e-04, 4.4000000000e-04
4830, 7.6000000000e-04, 3.6000000000e-04, 4.4000000000e-04
4831, 8.0000000000e-04, 3.6000000000e-04, 4.4000000000e-04
4832, 8.4000000000e-04, 3.6000000000e-04, 4.4000000000e-04
4833, 8.8000000000e-04, 3.6000000000e-04, 4.4000000000e-04
4834, 9.2000000000e-04, 3.6000000000e-04, 4.4000000000e-04
4835, 9.6000000000e-04, 3.6000000000e-04, 4.4000000000e-04
4836, 1.0000000000e-03, 3.6000000000e-04, 4.4000000000e-04
4837, 0.0000000000e+00, 4.0000000000e-04, 4.4000000000e-04
4838, 4.0000000000e-05, 4.0000000000e-04, 4.4000000000e-04
4839, 8.0000000000e-05, 4.0000000000e-04, 4.4000000000e-04
4840, 1.2000000000e-04, 4.0000000000e-04, 4.4000000000e-04
4841, 1.6000000000e-04, 4.0000000000e-04, 4.4000000000e-04
4842, 2.0000000000e-04, 4.0000000000e-04, 4.4000000000e-04
4843, 2.4000000000e-04, 4.0000000000e-04, 4.4000000000e-04
4844, 2.8000000000e-04, 4.0000000000e-04, 4.4000000000e-04
4845, 3.2000000000e-04, 4.0000000000e-04, 4.4000000000e-04
4846, 3.6000000000e-04, 4.0000000000e-04, 4.4000000000e-04
4847, 4.0000000000e-04, 4.0000000000e-04, 4.4000000000e-04
4848, 4.4000000000e-04, 4.0000000000e-04, 4.4000000000e-04
4849, 4.8000000000e-04, 4.0000000000e-04, 4.4000000000e-04
4850, 5.2000000000e-04, 4.0000000000e-04, 4.4000000000e-04
4851, 5.6000000000e-04, 4.0000000000e-04, 4.4000000000e-04
4852, 6.0000000000e-04, 4.0000000000e-04, 4.4000000000e-04
4853, 6.4000000000e-04, 4.0000000000e-04, 4.4000000000e-04
4854, 6.8000000000e-04, 4.0000000000e-04, 4.4000000000e-04
4855, 7.2000000000e-04, 4.0000000000e-04, 4.4000000000e-04
4856, 7.6000000000e-04, 4.0000000000e-04, 4.4000000000e-04
4857, 8.0000000000e-04, 4.0000000000e-04, 4.4000000000e-04
4858, 8.4000000000e-04, 4.0000000000e-04, 4.4000000000e-04
4859, 8.8000000000e-04, 4.0000000000e-04, 4.4000000000e-04
4860, 9.2000000000e-04, 4.0000000000e-04, 4.4000000000e-04
4861, 9.6000000000e-04, 4.0000000000e-04, 4.4000000000e-04
4862, 1.0000000000e-03, 4.0000000000e-04, 4.4000000000e-04
4863, 0.0000000000e+00, 4.4000000000e-04, 4.4000000000e-04
4864, 4.0000000000e-05, 4.4000000000e-04, 4.4000000000e-04
4865, 8.0000000000e-05, 4.4000000000e-04, 4.4000000000e-04
4866, 1.2000000000e-04, 4.4000000000e-04, 4.4000000000e-04
4867, 1.6000000000e-04, 4.4000000000e-04, 4.4000000000e-04
4868, 2.0000000000e-04, 4.4000000000e-04, 4.4000000000e-04
4869, 2.4000000000e-04, 4.4000000000e-04, 4.4000000000e-04
4870, 2.8000000000e-04, 4.4000000000e-04, 4.4000000000e-04
4871, 3.2000000000e-04, 4.4000000000e-04, 4.4000000000e-04
4872, 3.6000000000e-04, 4.4000000000e-04, 4.4000000000e-04
4873, 4.0000000000e-04, 4.4000000000e-04, 4.4000000000e-04
4874, 4.4000000000e-04, 4.4000000000e-04, 4.4000000000e-04
4875, 4.8000000000e-04, 4.4000000000e-04, 4.4000000000e-04
4876, 5.2000000000e-04, 4.4000000000e-04, 4.4000000000e-04
4877, 5.6000000000e-04, 4.4000000000e-04, 4.4000000000e-04
4878, 6.0000000000e-04, 4.4000000000e-04, 4.4000000000e-04
4879, 6.4000000000e-04, 4.4000000000e-04, 4.4000000000e-04
4880, 6.8000000000e-04, 4.4000000000e-04, 4.4000000000e-04
4881, 7.2000000000e-04, 4.4000000000e-04, 4.4000000000e-04
4882, 7.6000000000e-04, 4.4000000000e-04, 4.4000000000e-04
4883, 8.0000000000e-04, 4.4000000000e-04, 4.4000000000e-04
4884, 8.4000000000e-04, 4.4000000000e-04, 4.4000000000e-04
4885, 8.8000000000e-04, 4.4000000000e-04, 4.4000000000e-04
4886, 9.2000000000e-04, 4.4000000000e-04, 4.4000000000e-04
4887, 9.6000000000e-04, 4.4000000000e-04, 4.4000000000e-04
4888, 1.0000000000e-03, 4.4000000000e-04, 4.4000000000e-04
4889, 0.0000000000e+00, 4.8000000000e-04, 4.4000000000e-04
4890, 4.0000000000e-05, 4.8000000000e-04, 4.4000000000e-04
4891, 8.0000000000e-05, 4.8000000000e-04, 4.4000000000e-04
4892, 1.2000000000e-04, 4.8000000000e-04, 4.4000000000e-04
4893, 1.6000000000e-04, 4.8000000000e-04, 4.4000000000e-04
4894, 2.0000000000e-04, 4.8000000000e-04, 4.4000000000e-04
4895, 2.4000000000e-04, 4.8000000000e-04, 4.4000000000e-04
4896, 2.8000000000e-04, 4.8000000000e-04, 4.4000000000e-04
4897, 3.2000000000e-04, 4.8000000000e-04, 4.4000000000e-04
4898, 3.6000000000e-04, 4.8000000000e-04, 4.4000000000e-04
4899, 4.0000000000e-04, 4.8000000000e-04, 4.4000000000e-04
4900, 4.4000000000e-04, 4.8000000000e-04, 4.4000000000e-04
4901, 4.8000000000e-04, 4.8000000000e-04, 4.4000000000e-04
4902, 5.2000000000e-04, 4.8000000000e-04, 4.4000000000e-04
4903, 5.6000000000e-04, 4.8000000000e-04, 4.4000000000e-04
4904, 6.0000000000e-04, 4.8000000000e-04, 4.4000000000e-04
4905, 6.4000000000e-04, 4.8000000000e-04, 4.4000000000e-04
4906, 6.8000000000e-04, 4.8000000000e-04, 4.4000000000e-04
4907, 7.2000000000e-04, 4.8000000000e-04, 4.4000000000e-04
4908, 7.6000000000e-04, 4.8000000000e-04, 4.4000000000e-04
4909, 8.0000000000e-04, 4.8000000000e-04, 4.4000000000e-04
4910, 8.4000000000e-04, 4.8000000000e-04, 4.4000000000e-04
4911, 8.8000000000e-04, 4.8000000000e-04, 4.4000000000e-04
4912, 9.2000000000e-04, 4.8000000000e-04, 4.4000000000e-04
4913, 9.6000000000e-04, 4.8000000000e-04, 4.4000000000e-04
4914, 1.0000000000e-03, 4.8000000000e-04, 4.4000000000e-04
4915, 0.0000000000e+00, 5.2000000000e-04, 4.4000000000e-04
4916, 4.0000000000e-05, 5.2000000000e-04, 4.4000000000e-04
4917, 8.0000000000e-05, 5.2000000000e-04, 4.4000000000e-04
4918, 1.2000000000e-04, 5.2000000000e-04, 4.4000000000e-04
4919, 1.6000000000e-04, 5.2000000000e-04, 4.4000000000e-04
4920, 2.0000000000e-04, 5.2000000000e-04, 4.4000000000e-04
4921, 2.4000000000e-04, 5.2000000000e-04, 4.4000000000e-04
4922, 2.8000000000e-04, 5.2000000000e-04, 4.4000000000e-04
4923, 3.2000000000e-04, 5.2000000000e-04, 4.4000000000e-04
4924, 3.6000000000e-04, 5.2000000000e-04, 4.4000000000e-04
4925, 4.0000000000e-04, 5.2000000000e-04, 4.4000000000e-04
4926, 4.4000000000e-04, 5.2000000000e-04, 4.4000000000e-04
4927, 4.8000000000e-04, 5.2000000000e-04, 4.4000000000e-04
4928, 5.2000000000e-04, 5.2000000000e-04, 4.4000000000e-04
4929, 5.6000000000e-04, 5.2000000000e-04, 4.4000000000e-04
4930, 6.0000000000e-04, 5.2000000000e-04, 4.4000000000e-04
4931, 6.4000000000e-04, 5.2000000000e-04, 4.4000000000e-04
4932, 6.8000000000e-04, 5.2000000000e-04, 4.4000000000e-04
4933, 7.2000000000e-04, 5.2000000000e-04, 4.4000000000e-04
4934, 7.6000000000e-04, 5.2000000000e-04, 4.4000000000e-04
4935, 8.0000000000e-04, 5.2000000000e-04, 4.4000000000e-04
4936, 8.4000000000e-04, 5.2000000000e-04, 4.4000000000e-04
4937, 8.8000000000e-04, 5.2000000000e-04, 4.4000000000e-04
4938, 9.2000000000e-04, 5.2000000000e-04, 4.4000000000e-04
4939, 9.6000000000e-04, 5.2000000000e-04, 4.4000000000e-04
4940, 1.0000000000e-03, 5.2000000000e-04, 4.4000000000e-04
4941, 0.0000000000e+00, 5.6000000000e-04, 4.4000000000e-04
4942, 4.0000000000e-05, 5.6000000000e-04, 4.4000000000e-04
4943, 8.0000000000e-05, 5.6000000000e-04, 4.4000000000e-04
4944, 1.2000000000e-04, 5.6000000000e-04, 4.4000000000e-04
4945, 1.6000000000e-04, 5.6000000000e-04, 4.4000000000e-04
4946, 2.0000000000e-04, 5.6000000000e-04, 4.4000000000e-04
4947, 2.4000000000e-04, 5.6000000000e-04, 4.4000000000e-04
4948, 2.8000000000e-04, 5.6000000000e-04, 4.4000000000e-04
4949, 3.2000000000e-04, 5.6000000000e-04, 4.4000000000e-04
4950, 3.6000000000e-04, 5.6000000000e-04, 4.4000000000e-04
4951, 4.0000000000e-04, 5.6000000000e-04, 4.4000000000e-04
4952, 4.4000000000e-04, 5.6000000000e-04, 4.4000000000e-04
4953, 4.8000000000e-04, 5.6000000000e-04, 4.4000000000e-04
4954, 5.2000000000e-04, 5.6000000000e-04, 4.4000000000e-04
4955, 5.6000000000e-04, 5.6000000000e-04, 4.4000000000e-04
4956, 6.0000000000e-04, 5.6000000000e-04, 4.4000000000e-04
4957, 6.4000000000e-04, 5.6000000000e-04, 4.4000000000e-04
4958, 6.8000000000e-04, 5.6000000000e-04, 4.4000000000e-04
4959, 7.2000000000e-04, 5.6000000000e-04, 4.4000000000e-04
4960, 7.6000000000e-04, 5.6000000000e-04, 4.4000000000e-04
4961, 8.0000000000e-04, 5.6000000000e-04, 4.4000000000e-04
4962, 8.4000000000e-04, 5.6000000000e-04, 4.4000000000e-04
4963, 8.8000000000e-04, 5.6000000000e-04, 4.4000000000e-04
4964, 9.2000000000e-04, 5.6000000000e-04, 4.4000000000e-04
4965, 9.6000000000e-04, 5.6000000000e-04, 4.4000000000e-04
4966, 1.0000000000e-03, 5.6000000000e-04, 4.4000000000e-04
4967, 0.0000000000e+00, 6.0000000000e-04, 4.4000000000e-04
4968, 4.0000000000e-05, 6.0000000000e-04, 4.4000000000e-04
4969, 8.0000000000e-05, 6.0000000000e-04, 4.4000000000e-04
4970, 1.2000000000e-04, 6.0000000000e-04, 4.4000000000e-04
4971, 1.6000000000e-04, 6.0000000000e-04, 4.4000000000e-04
4972, 2.0000000000e-04, 6.0000000000e-04, 4.4000000000e-04
4973, 2.4000000000e-04, 6.0000000000e-04, 4.4000000000e-04
4974, 2.8000000000e-04, 6.0000000000e-04, 4.4000000000e-04
4975, 3.2000000000e-04, 6.0000000000e-04, 4.4000000000e-04
4976, 3.6000000000e-04, 6.0000000000e-04, 4.4000000000e-04
4977, 4.0000000000e-04, 6.0000000000e-04, 4.4000000000e-04
4978, 4.4000000000e-04, 6.0000000000e-04, 4.4000000000e-04
4979, 4.8000000000e-04, 6.0000000000e-04, 4.4000000000e-04
4980, 5.2000000000e-04, 6.0000000000e-04, 4.4000000000e-04
4981, 5.6000000000e-04, 6.0000000000e-04, 4.4000000000e-04
4982, 6.0000000000e-04, 6.0000000000e-04, 4.4000000000e-04
4983, 6.4000000000e-04, 6.0000000000e-04, 4.4000000000e-04
4984, 6.8000000000e-04, 6.0000000000e-04, 4.4000000000e-04
4985, 7.2000000000e-04, 6.0000000000e-04, 4.4000000000e-04
4986, 7.6000000000e-04, 6.0000000000e-04, 4.4000000000e-04
4987, 8.0000000000e-04, 6.0000000000e-04, 4.4000000000e-04
4988, 8.4000000000e-04, 6.0000000000e-04, 4.4000000000e-04
4989, 8.8000000000e-04, 6.0000000000e-04, 4.4000000000e-04
4990, 9.2000000000e-04, 6.0000000000e-04, 4.4000000000e-04
4991, 9.6000000000e-04, 6.0000000000e-04, 4.4000000000e-04
4992, 1.0000000000e-03, 6.0000000000e-04, 4.4000000000e-04
*ELEMENT, TYPE=C3D8
1, 1, 2, 28, 27, 417, 418, 444, 443
2, 2, 3, 29, 28, 418, 419, 445, 444
3, 3, 4, 30, 29, 419, 420, 446, 445
4, 4, 5, 31, 30, 420, 421, 447, 446
5, 5, 6, 32, 31, 421, 422, 448, 447
6, 6, 7, 33, 32, 422, 423, 449, 448
7, 7, 8, 34, 33, 423, 424, 450, 449
8, 8, 9, 35, 34, 424, 425, 451, 450
9, 9, 10, 36, 35, 425, 426, 452, 451
10, 10, 11, 37, 36, 426, 427, 453, 452
11, 11, 12, 38, 37, 427, 428, 454, 453
12, 12, 13, 39, 38, 428, 429, 455, 454
13, 13, 14, 40, 39, 429, 430, 456, 455
14, 14, 15, 41, 40, 430, 431, 457, 456
15, 15, 16, 42, 41, 431, 432, 458, 457
16, 16, 17, 43, 42, 432, 433, 459, 458
17, 17, 18, 44, 43, 433, 434, 460, 459
18, 18, 19, 45, 44, 434, 435, 461, 460
19, 19, 20, 46, 45, 435, 436, 462, 461
20, 20, 21, 47, 46, 436, 437, 463, 462
21, 21, 22, 48, 47, 437, 438, 464, 463
22, 22, 23, 49, 48, 438, 439, 465, 464
23, 23, 24, 50, 49, 439, 440, 466, 465
24, 24, 25, 51, 50, 440, 441, 467, 466
25, 25, 26, 52, 51, 441, 442, 468, 467
26, 27, 28, 54, 53, 443, 444, 470, 469
27, 28, 29, 55, 54, 444, 445, 471, 470
28, 29, 30, 56, 55, 445, 446, 472, 471
29, 30, 31, 57, 56, 446, 447, 473, 472
30, 31, 32, 58, 57, 447, 448, 474, 473
31, 32, 33, 59, 58, 448, 449, 475, 474
32, 33, 34, 60, 59, 449, 450, 476, 475
33, 34, 35, 61, 60, 450, 451, 477, 476
34, 35, 36, 62, 61, 451, 452, 478, 477
35, 36, 37, 63, 62, 452, 453, 479, 478
36, 37, 38, 64, 63, 453, 454, 480, 479
37, 38, 39, 65, 64, 454, 455, 481, 480
38, 39, 40, 66, 65, 455, 456, 482, 481
39, 40, 41, 67, 66, 456, 457, 483, 482
40, 41, 42, 68, 67, 457, 458, 484, 483
41, 42, 43, 69, 68, 458, 459, 485, 484
42, 43, 44, 70, 69, 459, 460, 486, 485
43, 44, 45, 71, 70, 460, 461, 487, 486
44, 45, 46, 72, 71, 461, 462, 488, 487
45, 46, 47, 73, 72, 462, 463, 489, 488
46, 47, 48, 74, 73, 463, 464, 490, 489
47, 48, 49, 75, 74, 464, 465, 491, 490
48, 49, 50, 76, 75, 465, 466, 492, 491
49, 50, 51, 77, 76, 466, 467, 493, 492
50, 51, 52, 78, 77, 467, 468, 494, 493
51, 53, 54, 80, 79, 469, 470, 496, 495
52, 54, 55, 81, 80, 470, 471, 497, 496
53, 55, 56, 82, 81, 471, 472, 498, 497
54, 56, 57, 83, 82, 472, 473, 499, 498
55, 57, 58, 84, 83, 473, 474, 500, 499
56, 58, 59, 85, 84, 474, 475, 501, 500
57, 59, 60, 86, 85, 475, 476, 502, 501
58, 60, 61, 87, 86, 476, 477, 503, 502
59, 61, 62, 88, 87, 477, 478, 504, 503
60, 62, 63, 89, 88, 478, 479, 505, 504
61, 63, 64, 90, 89, 479, 480, 506, 505
62, 64, 65, 91, 90, 480, 481, 507, 506
63, 65, 66, 92, 91, 481, 482, 508, 507
64, 66, 67, 93, 92, 482, 483, 509, 508
65, 67, 68, 94, 93, 483, 484, 510, 509
66, 68, 69, 95, 94, 484, 485, 511, 510
67, 69, 70, 96, 95, 485, 486, 512, 511
68, 70, 71, 97, 96, 486, 487, 513, 512
69, 71, 72, 98, 97, 487, 488, 514, 513
70, 72, 73, 99, 98, 488, 489, 515, 514
71, 73, 74, 100, 99, 489, 490, 516, 515
72, 74, 75, 101, 100, 490, 491, 517, 516
73, 75, 76, 102, 101, 491, 492, 518, 517
74, 76, 77, 103, 102, 492, 493, 519, 518
75, 77, 78, 104, 103, 493, 494, 520, 519
76, 79, 80, 106, 105, 495, 496, 522, 521
77, 80, 81, 107, 106, 496, 497, 523, 522
78, 81, 82, 108, 107, 497, 498, 524, 523
79, 82, 83, 109, 108, 498, 499, 525, 524
80, 83, 84, 110, 109, 499, 500, 526, 525
81, 84, 85, 111, 110, 500, 501, 527, 526
82, 85, 86, 112, 111, 501, 502, 528, 527
83, 86, 87, 113, 112, 502, 503, 529, 528
84, 87, 88, 114, 113, 503, 504, 530, 529
85, 88, 89, 115, 114, 504, 505, 531, 530
86, 89, 90, 116, 115, 505, 506, 532, 531
87, 90, 91, 117, 116, 506, 507, 533, 532
88, 91, 92, 118, 117, 507, 508, 534, 533
89, 92, 93, 119, 118, 508, 509, 535, 534
90, 93, 94, 120, 119, 509, 510, 536, 535
91, 94, 95, 121, 120, 510, 511, 537, 536
92, 95, 96, 122, 121, 511, 512, 538, 537
93, 96, 97, 123, 122, 512, 513, 539, 538
94, 97, 98, 124, 123, 513, 514, 540, 539
95, 98, 99, 125, 124, 514, 515, 541, 540
96, 99, 100, 126, 125, 515, 516, 542, 541
97, 100, 101, 127, 126, 516, 517, 543, 542
98, 101, 102, 128, 127, 517, 518, 544, 543
99, 102, 103, 129, 128, 518, 519, 545, 544
100, 103, 104, 130, 129, 519, 520, 546, 545
101, 105, 106, 132, 131, 521, 522, 548, 547
102, 106, 107, 133, 132, 522, 523, 549, 548
103, 107, 108, 134, 133, 523, 524, 550, 549
104, 108, 109, 135, 134, 524, 525, 551, 550
105, 109, 110, 136, 135, 525, 526, 552, 551
106, 110, 111, 137, 136, 526, 527, 553, 552
107, 111, 112, 138, 137, 527, 528, 554, 553
108, 112, 113, 139, 138, 528, 529, 555, 554
109, 113, 114, 140, 139, 529, 530, 556, 555
110, 114, 115, 141, 140, 530, 531, 557, 556
111, 115, 116, 142, 141, 531, 532, 558, 557
112, 116, 117, 143, 142, 532, 533, 559, 558
113, 117, 118, 144, 143, 533, 534, 560, 559
114, 118, 119, 145, 144, 534, 535, 561, 560
115, 119, 120, 146, 145, 535, 536, 562, 561
116, 120, 121, 147, 146, 536, 537, 563, 562
117, 121, 122, 148, 147, 537, 538, 564, 563
118, 122, 123, 149, 148, 538, 539, 565, 564
119, 123, 124, 150, 149, 539, 540, 566, 565
120, 124, 125, 151, 150, 540, 541, 567, 566
121, 125, 126, 152, 151, 541, 542, 568, 567
122, 126, 127, 153, 152, 542, 543, 569, 568
123, 127, 128, 154, 153, 543, 544, 570, 569
124, 128, 129, 155, 154, 544, 545, 571, 570
125, 129, 130, 156, 155, 545, 546, 572, 571
126, 131, 132, 158, 157, 547, 548, 574, 573
127, 132, 133, 159, 158, 548, 549, 575, 574
128, 133, 134, 160, 159, 549, 550, 576, 575
129, 134, 135, 161, 160, 550, 551, 577, 576
130, 135, 136, 162, 161, 551, 552, 578, 577
131, 136, 137, 163, 162, 552, 553, 579, 578
132, 137, 138, 164, 163, 553, 554, 580, 579
133, 138, 139, 165, 164, 554, 555, 581, 580
134, 139, 140, 166, 165, 555, 556, 582, 581
135, 140, 141, 167, 166, 556, 557, 583, 582
136, 141, 142, 168, 167, 557, 558, 584, 583
137, 142, 143, 169, 168, 558, 559, 585, 584
138, 143, 144, 170, 169, 559, 560, 586, 585
139, 144, 145, 171, 170, 560, 561, 587, 586
140, 145, 146, 172, 171, 561, 562, 588, 587
141, 146, 147, 173, 172, 562, 563, 589, 588
142, 147, 148, 174, 173, 563, 564, 590, 589
143, 148, 149, 175, 174, 564, 565, 591, 590
144, 149, 150, 176, 175, 565, 566, 592, 591
145, 150, 151, 177, 176, 566, 567, 593, 592
146, 151, 152, 178, 177, 567, 568, 594, 593
147, 152, 153, 179, 178, 568, 569, 595, 594
148, 153, 154, 180, 179, 569, 570, 596, 595
149, 154, 155, 181, 180, 570, 571, 597, 596
150, 155, 156, 182, 181, 571, 572, 598, 597
151, 157, 158, 184, 183, 573, 574, 600, 599
152, 158, 159, 185, 184, 574, 575, 601, 600
153, 159, 160, 186, 185, 575, 576, 602, 601
154, 160, 161, 187, 186, 576, 577, 603, 602
155, 161, 162, 188, 187, 577, 578, 604, 603
156, 162, 163, 189, 188, 578, 579, 605, 604
157, 163, 164, 190, 189, 579, 580, 606, 605
158, 164, 165, 191, 190, 580, 581, 607, 606
159, 165, 166, 192, 191, 581, 582, 608, 607
160, 166, 167, 193, 192, 582, 583, 609, 608
161, 167, 168, 194, 193, 583, 584, 610, 609
162, 168, 169, 195, 194, 584, 585, 611, 610
163, 169, 170, 196, 195, 585, 586, 612, 611
164, 170, 171, 197, 196, 586, 587, 613, 612
165, 171, 172, 198, 197, 587, 588, 614, 613
166, 172, 173, 199, 198, 588, 589, 615, 614
167, 173, 174, 200, 199, 589, 590, 616, 615
168, 174, 175, 201, 200, 590, 591, 617, 616
169, 175, 176, 202, 201, 591, 592, 618, 617
170, 176, 177, 203, 202, 592, 593, 619, 618
171, 177, 178, 204, 203, 593, 594, 620, 619
172, 178, 179, 205, 204, 594, 595, 621, 620
173, 179, 180, 206, 205, 595, 596, 622, 621
174, 180, 181, 207, 206, 596, 597, 623, 622
175, 181, 182, 208, 207, 597, 598, 624, 623
176, 183, 184, 210, 209, 599, 600, 626, 625
177, 184, 185, 211, 210, 600, 601, 627, 626
178, 185, 186, 212, 211, 601, 602, 628, 627
179, 186, 187, 213, 212, 602, 603, 629, 628
180, 187, 188, 214, 213, 603, 604, 630, 629
181, 188, 189, 215, 214, 604, 605, 631, 630
182, 189, 190, 216, 215, 605, 606, 632, 631
183, 190, 191, 217, 216, 606, 607, 633, 632
184, 191, 192, 218, 217, 607, 608, 634, 633
185, 192, 193, 219, 218, 608, 609, 635, 634
186, 193, 194, 220, 219, 609, 610, 636, 635
187, 194, 195, 221, 220, 610, 611, 637, 636
188, 195, 196, 222, 221, 611, 612, 638, 637
189, 196, 197, 223, 222, 612, 613, 639, 638
190, 197, 198, 224, 223, 613, 614, 640, 639
191, 198, 199, 225, 224, 614, 615, 641, 640
192, 199, 200, 226, 225, 615, 616, 642, 641
193, 200, 201, 227, 226, 616, 617, 643, 642
194, 201, 202, 228, 227, 617, 618, 644, 643
195, 202, 203, 229, 228, 618, 619, 645, 644
196, 203, 204, 230, 229, 619, 620, 646, 645
197, 204, 205, 231, 230, 620, 621, 647, 646
198, 205, 206, 232, 231, 621, 622, 648, 647
199, 206, 207, 233, 232, 622, 623, 649, 648
200, 207, 208, 234, 233, 623, 624, 650, 649
201, 209, 210, 236, 235, 625, 626, 652, 651
202, 210, 211, 237, 236, 626, 627, 653, 652
203, 211, 212, 238, 237, 627, 628, 654, 653
204, 212, 213, 239, 238, 628, 629, 655, 654
205, 213, 214, 240, 239, 629, 630, 656, 655
206, 214, 215, 241, 240, 630, 631, 657, 656
207, 215, 216, 242, 241, 631, 632, 658, 657
208, 216, 217, 243, 242, 632, 633, 659, 658
209, 217, 218, 244, 243, 633, 634, 660, 659
210, 218, 219, 245, 244, 634, 635, 661, 660
211, 219, 220, 246, 245, 635, 636, 662, 661
212, 220, 221, 247, 246, 636, 637, 663, 662
213, 221, 222, 248, 247, 637, 638, 664, 663
214, 222, 223, 249, 248, 638, 639, 665, 664
215, 223, 224, 250, 249, 639, 640, 666, 665
216, 224, 225, 251, 250, 640, 641, 667, 666
217, 225, 226, 252, 251, 641, 642, 668, 667
218, 226, 227, 253, 252, 642, 643, 669, 668
219, 227, 228, 254, 253, 643, 644, 670, 669
220, 228, 229, 255, 254, 644, 645, 671, 670
221, 229, 230, 256, 255, 645, 646, 672, 671
222, 230, 231, 257, 256, 646, 647, 673, 672
223, 231, 232, 258, 257, 647, 648, 674, 673
224, 232, 233, 259, 258, 648, 649, 675, 674
225, 233, 234, 260, 259, 649, 650, 676, 675
226, 235, 236, 262, 261, 651, 652, 678, 677
227, 236, 237, 263, 262, 652, 653, 679, 678
228, 237, 238, 264, 263, 653, 654, 680, 679
229, 238, 239, 265, 264, 654, 655, 681, 680
230, 239, 240, 266, 265, 655, 656, 682, 681
231, 240, 241, 267, 266, 656, 657, 683, 682
232, 241, 242, 268, 267, 657, 658, 684, 683
233, 242, 243, 269, 268, 658, 659, 685, 684
234, 243, 244, 270, 269, 659, 660, 686, 685
235, 244, 245, 271, 270, 660, 661, 687, 686
236, 245, 246, 272, 271, 661, 662, 688, 687
237, 246, 247, 273, 272, 662, 663, 689, 688
238, 247, 248, 274, 273, 663, 664, 690, 689
239, 248, 249, 275, 274, 664, 665, 691, 690
240, 249, 250, 276, 275, 665, 666, 692, 691
241, 250, 251, 277, 276, 666, 667, 693, 692
242, 251, 252, 278, 277, 667, 668, 694, 693
243, 252, 253, 279, 278, 668, 669, 695, 694
244, 253, 254, 280, 279, 669, 670, 696, 695
245, 254, 255, 281, 280, 670, 671, 697, 696
246, 255, 256, 282, 281, 671, 672, 698, 697
247, 256, 257, 283, 282, 672, 673, 699, 698
248, 257, 258, 284, 283, 673, 674, 700, 699
249, 258, 259, 285, 284, 674, 675, 701, 700
250, 259, 260, 286, 285, 675, 676, 702, 701
251, 261, 262, 288, 287, 677, 678, 704, 703
252, 262, 263, 289, 288, 678, 679, 705, 704
253, 263, 264, 290, 289, 679, 680, 706, 705
254, 264, 265, 291, 290, 680, 681, 707, 706
255, 265, 266, 292, 291, 681, 682, 708, 707
256, 266, 267, 293, 292, 682, 683, 709, 708
257, 267, 268, 294, 293, 683, 684, 710, 709
258, 268, 269, 295, 294, 684, 685, 711, 710
259, 269, 270, 296, 295, 685, 686, 712, 711
260, 270, 271, 297, 296, 686, 687, 713, 712
261, 271, 272, 298, 297, 687, 688, 714, 713
262, 272, 273, 299, 298, 688, 689, 715, 714
263, 273, 274, 300, 299, 689, 690, 716, 715
264, 274, 275, 301, 300, 690, 691, 717, 716
265, 275, 276, 302, 301, 691, 692, 718, 717
266, 276, 277, 303, 302, 692, 693, 719, 718
267, 277, 278, 304, 303, 693, 694, 720, 719
268, 278, 279, 305, 304, 694, 695, 721, 720
269, 279, 280, 306, 305, 695, 696, 722, 721
270, 280, 281, 307, 306, 696, 697, 723, 722
271, 281, 282, 308, 307, 697, 698, 724, 723
272, 282, 283, 309, 308, 698, 699, 725, 724
273, 283, 284, 310, 309, 699, 700, 726, 725
274, 284, 285, 311, 310, 700, 701, 727, 726
275, 285, 286, 312, 311, 701, 702, 728, 727
276, 287, 288, 314, 313, 703, 704, 730, 729
277, 288, 289, 315, 314, 704, 705, 731, 730
278, 289, 290, 316, 315, 705, 706, 732, 731
279, 290, 291, 317, 316, 706, 707, 733, 732
280, 291, 292, 318, 317, 707, 708, 734, 733
281, 292, 293, 319, 318, 708, 709, 735, 734
282, 293, 294, 320, 319, 709, 710, 736, 735
283, 294, 295, 321, 320, 710, 711, 737, 736
284, 295, 296, 322, 321, 711, 712, 738, 737
285, 296, 297, 323, 322, 712, 713, 739, 738
286, 297, 298, 324, 323, 713, 714, 740, 739
287, 298, 299, 325, 324, 714, 715, 741, 740
288, 299, 300, 326, 325, 715, 716, 742, 741
289, 300, 301, 327, 326, 716, 717, 743, 742
290, 301, 302, 328, 327, 717, 718, 744, 743
291, 302, 303, 329, 328, 718, 719, 745, 744
292, 303, 304, 330, 329, 719, 720, 746, 745
293, 304, 305, 331, 330, 720, 721, 747, 746
294, 305, 306, 332, 331, 721, 722, 748, 747
295, 306, 307, 333, 332, 722, 723, 749, 748
296, 307, 308, 334, 333, 723, 724, 750, 749
297, 308, 309, 335, 334, 724, 725, 751, 750
298, 309, 310, 336, 335, 725, 726, 752, 751
299, 310, 311, 337, 336, 726, 727, 753, 752
300, 311, 312, 338, 337, 727, 728, 754, 753
301, 313, 314, 340, 339, 729, 730, 756, 755
302, 314, 315, 341, 340, 730, 731, 757, 756
303, 315, 316, 342, 341, 731, 732, 758, 757
304, 316, 317, 343, 342, 732, 733, 759, 758
305, 317, 318, 344, 343, 733, 734, 760, 759
306, 318, 319, 345, 344, 734, 735, 761, 760
307, 319, 320, 346, 345, 735, 736, 762, 761
308, 320, 321, 347, 346, 736, 737, 763, 762
309, 321, 322, 348, 347, 737, 738, 764, 763
310, 322, 323, 349, 348, 738, 739, 765, 764
311, 323, 324, 350, 349, 739, 740, 766, 765
312, 324, 325, 351, 350, 740, 741, 767, 766
313, 325, 326, 352, 351, 741, 742, 768, 767
314, 326, 327, 353, 352, 742, 743, 769, 768
315, 327, 328, 354, 353, 743, 744, 770, 769
316, 328, 329, 355, 354, 744, 745, 771, 770
317, 329, 330, 356, 355, 745, 746, 772, 771
318, 330, 331, 357, 356, 746, 747, 773, 772
319, 331, 332, 358, 357, 747, 748, 774, 773
320, 332, 333, 359, 358, 748, 749, 775, 774
321, 333, 334, 360, 359, 749, 750, 776, 775
322, 334, 335, 361, 360, 750, 751, 777, 776
323, 335, 336, 362, 361, 751, 752, 778, 777
324, 336, 337, 363, 362, 752, 753, 779, 778
325, 337, 338, 364, 363, 753, 754, 780, 779
326, 339, 340, 366, 365, 755, 756, 782, 781
327, 340, 341, 367, 366, 756, 757, 783, 782
328, 341, 342, 368, 367, 757, 758, 784, 783
329, 342, 343, 369, 368, 758, 759, 785, 784
330, 343, 344, 370, 369, 759, 760, 786, 785
331, 344, 345, 371, 370, 760, 761, 787, 786
332, 345, 346, 372, 371, 761, 762, 788, 787
333, 346, 347, 373, 372, 762, 763, 789, 788
334, 347, 348, 374, 373, 763, 764, 790, 789
335, 348, 349, 375, 374, 764, 765, 791, 790
336, 349, 350, 376, 375, 765, 766, 792, 791
337, 350, 351, 377, 376, 766, 767, 793, 792
338, 351, 352, 378, 377, 767, 768, 794, 793
339, 352, 353, 379, 378, 768, 769, 795, 794
340, 353, 354, 380, 379, 769, 770, 796, 795
341, 354, 355, 381, 380, 770, 771, 797, 796
342, 355, 356, 382, 381, 771, 772, 798, 797
343, 356, 357, 383, 382, 772, 773, 799, 798
344, 357, 358, 384, 383, 773, 774, 800, 799
345, 358, 359, 385, 384, 774, 775, 801, 800
346, 359, 360, 386, 385, 775, 776, 802, 801
347, 360, 361, 387, 386, 776, 777, 803, 802
348, 361, 362, 388, 387, 777, 778, 804, 803
349, 362, 363, 389, 388, 778, 779, 805, 804
350, 363, 364, 390, 389, 779, 780, 806, 805
351, 365, 366, 392, 391, 781, 782, 808, 807
352, 366, 367, 393, 392, 782, 783, 809, 808
353, 367, 368, 394, 393, 783, 784, 810, 809
354, 368, 369, 395, 394, 784, 785, 811, 810
355, 369, 370, 396, 395, 785, 786, 812, 811
356, 370, 371, 397, 396, 786, 787, 813, 812
357, 371, 372, 398, 397, 787, 788, 814, 813
358, 372, 373, 399, 398, 788, 789, 815, 814
359, 373, 374, 400, 399, 789, 790, 816, 815
360, 374, 375, 401, 400, 790, 791, 817, 816
361, 375, 376, 402, 401, 791, 792, 818, 817
362, 376, 377, 403, 402, 792, 793, 819, 818
363, 377, 378, 404, 403, 793, 794, 820, 819
364, 378, 379, 405, 404, 794, 795, 821, 820
365, 379, 380, 406, 405, 795, 796, 822, 821
366, 380, 381, 407, 406, 796, 797, 823, 822
367, 381, 382, 408, 407, 797, 798, 824, 823
368, 382, 383, 409, 408, 798, 799, 825, 824
369, 383, 384, 410, 409, 799, 800, 826, 825
370, 384, 385, 411, 410, 800, 801, 827, 826
371, 385, 386, 412, 411, 801, 802, 828, 827
372, 386, 387, 413, 412, 802, 803, 829, 828
373, 387, 388, 414, 413, 803, 804, 830, 829
374, 388, 389, 415, 414, 804, 805, 831, 830
375, 389, 390, 416, 415, 805, 806, 832, 831
376, 417, 418, 444, 443, 833, 834, 860, 859
377, 418, 419, 445, 444, 834, 835, 861, 860
378, 419, 420, 446, 445, 835, 836, 862, 861
379, 420, 421, 447, 446, 836, 837, 863, 862
380, 421, 422, 448, 447, 837, 838, 864, 863
381, 422, 423, 449, 448, 838, 839, 865, 864
382, 423, 424, 450, 449, 839, 840, 866, 865
383, 424, 425, 451, 450, 840, 841, 867, 866
384, 425, 426, 452, 451, 841, 842, 868, 867
385, 426, 427, 453, 452, 842, 843, 869, 868
386, 427, 428, 454, 453, 843, 844, 870, 869
387, 428, 429, 455, 454, 844, 845, 871, 870
388, 429, 430, 456, 455, 845, 846, 872, 871
389, 430, 431, 457, 456, 846, 847, 873, 872
390, 431, 432, 458, 457, 847, 848, 874, 873
391, 432, 433, 459, 458, 848, 849, 875, 874
392, 433, 434, 460, 459, 849, 850, 876, 875
393, 434, 435, 461, 460, 850, 851, 877, 876
394, 435, 436, 462, 461, 851, 852, 878, 877
395, 436, 437, 463, 462, 852, 853, 879, 878
396, 437, 438, 464, 463, 853, 854, 880, 879
397, 438, 439, 465, 464, 854, 855, 881, 880
398, 439, 440, 466, 465, 855, 856, 882, 881
399, 440, 441, 467, 466, 856, 857, 883, 882
400, 441, 442, 468, 467, 857, 858, 884, 883
401, 443, 444, 470, 469, 859, 860, 886, 885
402, 444, 445, 471, 470, 860, 861, 887, 886
403, 445, 446, 472, 471, 861, 862, 888, 887
404, 446, 447, 473, 472, 862, 863, 889, 888
405, 447, 448, 474, 473, 863, 864, 890, 889
406, 448, 449, 475, 474, 864, 865, 891, 890
407, 449, 450, 476, 475, 865, 866, 892, 891
408, 450, 451, 477, 476, 866, 867, 893, 892
409, 451, 452, 478, 477, 867, 868, 894, 893
410, 452, 453, 479, 478, 868, 869, 895, 894
411, 453, 454, 480, 479, 869, 870, 896, 895
412, 454, 455, 481, 480, 870, 871, 897, 896
413, 455, 456, 482, 481, 871, 872, 898, 897
414, 456, 457, 483, 482, 872, 873, 899, 898
415, 457, 458, 484, 483, 873, 874, 900, 899
416, 458, 459, 485, 484, 874, 875, 901, 900
417, 459, 460, 486, 485, 875, 876, 902, 901
418, 460, 461, 487, 486, 876, 877, 903, 902
419, 461, 462, 488, 487, 877, 878, 904, 903
420, 462, 463, 489, 488, 878, 879, 905, 904
421, 463, 464, 490, 489, 879, 880, 906, 905
422, 464, 465, 491, 490, 880, 881, 907, 906
423, 465, 466, 492, 491, 881, 882, 908, 907
424, 466, 467, 493, 492, 882, 883, 909, 908
425, 467, 468, 494, 493, 883, 884, 910, 909
426, 469, 470, 496, 495, 885, 886, 912, 911
427, 470, 471, 497, 496, 886, 887, 913, 912
428, 471, 472, 498, 497, 887, 888, 914, 913
429, 472, 473, 499, 498, 888, 889, 915, 914
430, 473, 474, 500, 499, 889, 890, 916, 915
431, 474, 475, 501, 500, 890, 891, 917, 916
432, 475, 476, 502, 501, 891, 892, 918, 917
433, 476, 477, 503, 502, 892, 893, 919, 918
434, 477, 478, 504, 503, 893, 894, 920, 919
435, 478, 479, 505, 504, 894, 895, 921, 920
436, 479, 480, 506, 505, 895, 896, 922, 921
437, 480, 481, 507, 506, 896, 897, 923, 922
438, 481, 482, 508, 507, 897, 898, 924, 923
439, 482, 483, 509, 508, 898, 899, 925, 924
440, 483, 484, 510, 509, 899, 900, 926, 925
441, 484, 485, 511, 510, 900, 901, 927, 926
442, 485, 486, 512, 511, 901, 902, 928, 927
443, 486, 487, 513, 512, 902, 903, 929, 928
444, 487, 488, 514, 513, 903, 904, 930, 929
445, 488, 489, 515, 514, 904, 905, 931, 930
446, 489, 490, 516, 515, 905, 906, 932, 931
447, 490, 491, 517, 516, 906, 907, 933, 932
448, 491, 492, 518, 517, 907, 908, 934, 933
449, 492, 493, 519, 518, 908, 909, 935, 934
450, 493, 494, 520, 519, 909, 910, 936, 935
451, 495, 496, 522, 521, 911, 912, 938, 937
452, 496, 497, 523, 522, 912, 913, 939, 938
453, 497, 498, 524, 523, 913, 914, 940, 939
454, 498, 499, 525, 524, 914, 915, 941, 940
455, 499, 500, 526, 525, 915, 916, 942, 941
456, 500, 501, 527, 526, 916, 917, 943, 942
457, 501, 502, 528, 527, 917, 918, 944, 943
458, 502, 503, 529, 528, 918, 919, 945, 944
459, 503, 504, 530, 529, 919, 920, 946, 945
460, 504, 505, 531, 530, 920, 921, 947, 946
461, 505, 506, 532, 531, 921, 922, 948, 947
462, 506, 507, 533, 532, 922, 923, 949, 948
463, 507, 508, 534, 533, 923, 924, 950, 949
464, 508, 509, 535, 534, 924, 925, 951, 950
465, 509, 510, 536, 535, 925, 926, 952, 951
466, 510, 511, 537, 536, 926, 927, 953, 952
467, 511, 512, 538, 537, 927, 928, 954, 953
468, 512, 513, 539, 538, 928, 929, 955, 954
469, 513, 514, 540, 539, 929, 930, 956, 955
470, 514, 515, 541, 540, 930, 931, 957, 956
471, 515, 516, 542, 541, 931, 932, 958, 957
472, 516, 517, 543, 542, 932, 933, 959, 958
473, 517, 518, 544, 543, 933, 934, 960, 959
474, 518, 519, 545, 544, 934, 935, 961, 960
475, 519, 520, 546, 545, 935, 936, 962, 961
476, 521, 522, 548, 547, 937, 938, 964, 963
477, 522, 523, 549, 548, 938, 939, 965, 964
478, 523, 524, 550, 549, 939, 940, 966, 965
479, 524, 525, 551, 550, 940, 941, 967, 966
480, 525, 526, 552, 551, 941, 942, 968, 967
481, 526, 527, 553, 552, 942, 943, 969, 968
482, 527, 528, 554, 553, 943, 944, 970, 969
483, 528, 529, 555, 554, 944, 945, 971, 970
484, 529, 530, 556, 555, 945, 946, 972, 971
485, 530, 531, 557, 556, 946, 947, 973, 972
486, 531, 532, 558, 557, 947, 948, 974, 973
487, 532, 533, 559, 558, 948, 949, 975, 974
488, 533, 534, 560, 559, 949, 950, 976, 975
489, 534, 535, 561, 560, 950, 951, 977, 976
490, 535, 536, 562, 561, 951, 952, 978, 977
491, 536, 537, 563, 562, 952, 953, 979, 978
492, 537, 538, 564, 563, 953, 954, 980, 979
493, 538, 539, 565, 564, 954, 955, 981, 980
494, 539, 540, 566, 565, 955, 956, 982, 981
495, 540, 541, 567, 566, 956, 957, 983, 982
496, 541, 542, 568, 567, 957, 958, 984, 983
497, 542, 543, 569, 568, 958, 959, 985, 984
498, 543, 544, 570, 569, 959, 960, 986, 985
499, 544, 545, 571, 570, 960, 961, 987, 986
500, 545, 546, 572, 571, 961, 962, 988, 987
501, 547, 548, 574, 573, 963, 964, 990, 989
502, 548, 549, 575, 574, 964, 965, 991, 990
503, 549, 550, 576, 575, 965, 966, 992, 991
504, 550, 551, 577, 576, 966, 967, 993, 992
505, 551, 552, 578, 577, 967, 968, 994, 993
506, 552, 553, 579, 578, 968, 969, 995, 994
507, 553, 554, 580, 579, 969, 970, 996, 995
508, 554, 555, 581, 580, 970, 971, 997, 996
509, 555, 556, 582, 581, 971, 972, 998, 997
510, 556, 557, 583, 582, 972, 973, 999, 998
511, 557, 558, 584, 583, 973, 974, 1000, 999
512, 558, 559, 585, 584, 974, 975, 1001, 1000
513, 559, 560, 586, 585, 975, 976, 1002, 1001
514, 560, 561, 587, 586, 976, 977, 1003, 1002
515, 561, 562, 588, 587, 977, 978, 1004, 1003
516, 562, 563, 589, 588, 978, 979, 1005, 1004
517, 563, 564, 590, 589, 979, 980, 1006, 1005
518, 564, 565, 591, 590, 980, 981, 1007, 1006
519, 565, 566, 592, 591, 981, 982, 1008, 1007
520, 566, 567, 593, 592, 982, 983, 1009, 1008
521, 567, 568, 594, 593, 983, 984, 1010, 1009
522, 568, 569, 595, 594, 984, 985, 1011, 1010
523, 569, 570, 596, 595, 985, 986, 1012, 1011
524, 570, 571, 597, 596, 986, 987, 1013, 1012
525, 571, 572, 598, 597, 987, 988, 1014, 1013
526, 573, 574, 600, 599, 989, 990, 1016, 1015
527, 574, 575, 601, 600, 990, 991, 1017, 1016
528, 575, 576, 602, 601, 991, 992, 1018, 1017
529, 576, 577, 603, 602, 992, 993, 1019, 1018
530, 577, 578, 604, 603, 993, 994, 1020, 1019
531, 578, 579, 605, 604, 994, 995, 1021, 1020
532, 579, 580, 606, 605, 995, 996, 1022, 1021
533, 580, 581, 607, 606, 996, 997, 1023, 1022
534, 581, 582, 608, 607, 997, 998, 1024, 1023
535, 582, 583, 609, 608, 998, 999, 1025, 1024
536, 583, 584, 610, 609, 999, 1000, 1026, 1025
537, 584, 585, 611, 610, 1000, 1001, 1027, 1026
538, 585, 586, 612, 611, 1001, 1002, 1028, 1027
539, 586, 587, 613, 612, 1002, 1003, 1029, 1028
540, 587, 588, 614, 613, 1003, 1004, 1030, 1029
541, 588, 589, 615, 614, 1004, 1005, 1031, 1030
542, 589, 590, 616, 615, 1005, 1006, 1032, 1031
543, 590, 591, 617, 616, 1006, 1007, 1033, 1032
544, 591, 592, 618, 617, 1007, 1008, 1034, 1033
545, 592, 593, 619, 618, 1008, 1009, 1035, 1034
546, 593, 594, 620, 619, 1009, 1010, 1036, 1035
547, 594, 595, 621, 620, 1010, 1011, 1037, 1036
548, 595, 596, 622, 621, 1011, 1012, 1038, 1037
549, 596, 597, 623, 622, 1012, 1013, 1039, 1038
550, 597, 598, 624, 623, 1013, 1014, 1040, 1039
551, 599, 600, 626, 625, 1015, 1016, 1042, 1041
552, 600, 601, 627, 626, 1016, 1017, 1043, 1042
553, 601, 602, 628, 627, 1017, 1018, 1044, 1043
554, 602, 603, 629, 628, 1018, 1019, 1045, 1044
555, 603, 604, 630, 629, 1019, 1020, 1046, 1045
556, 604, 605, 631, 630, 1020, 1021, 1047, 1046
557, 605, 606, 632, 631, 1021, 1022, 1048, 1047
558, 606, 607, 633, 632, 1022, 1023, 1049, 1048
559, 607, 608, 634, 633, 1023, 1024, 1050, 1049
560, 608, 609, 635, 634, 1024, 1025, 1051, 1050
561, 609, 610, 636, 635, 1025, 1026, 1052, 1051
562, 610, 611, 637, 636, 1026, 1027, 1053, 1052
563, 611, 612, 638, 637, 1027, 1028, 1054, 1053
564, 612, 613, 639, 638, 1028, 1029, 1055, 1054
565, 613, 614, 640, 639, 1029, 1030, 1056, 1055
566, 614, 615, 641, 640, 1030, 1031, 1057, 1056
567, 615, 616, 642, 641, 1031, 1032, 1058, 1057
568, 616, 617, 643, 642, 1032, 1033, 1059, 1058
569, 617, 618, 644, 643, 1033, 1034, 1060, 1059
570, 618, 619, 645, 644, 1034, 1035, 1061, 1060
571, 619, 620, 646, 645, 1035, 1036, 1062, 1061
572, 620, 621, 647, 646, 1036, 1037, 1063, 1062
573, 621, 622, 648, 647, 1037, 1038, 1064, 1063
574, 622, 623, 649, 648, 1038, 1039, 1065, 1064
575, 623, 624, 650, 649, 1039, 1040, 1066, 1065
576, 625, 626, 652, 651, 1041, 1042, 1068, 1067
577, 626, 627, 653, 652, 1042, 1043, 1069, 1068
578, 627, 628, 654, 653, 1043, 1044, 1070, 1069
579, 628, 629, 655, 654, 1044, 1045, 1071, 1070
580, 629, 630, 656, 655, 1045, 1046, 1072, 1071
581, 630, 631, 657, 656, 1046, 1047, 1073, 1072
582, 631, 632, 658, 657, 1047, 1048, 1074, 1073
583, 632, 633, 659, 658, 1048, 1049, 1075, 1074
584, 633, 634, 660, 659, 1049, 1050, 1076, 1075
585, 634, 635, 661, 660, 1050, 1051, 1077, 1076
586, 635, 636, 662, 661, 1051, 1052, 1078, 1077
587, 636, 637, 663, 662, 1052, 1053, 1079, 1078
588, 637, 638, 664, 663, 1053, 1054, 1080, 1079
589, 638, 639, 665, 664, 1054, 1055, 1081, 1080
590, 639, 640, 666, 665, 1055, 1056, 1082, 1081
591, 640, 641, 667, 666, 1056, 1057, 1083, 1082
592, 641, 642, 668, 667, 1057, 1058, 1084, 1083
593, 642, 643, 669, 668, 1058, 1059, 1085, 1084
594, 643, 644, 670, 669, 1059, 1060, 1086, 1085
595, 644, 645, 671, 670, 1060, 1061, 1087, 1086
596, 645, 646, 672, 671, 1061, 1062, 1088, 1087
597, 646, 647, 673, 672, 1062, 1063, 1089, 1088
598, 647, 648, 674, 673, 1063, 1064, 1090, 1089
599, 648, 649, 675, 674, 1064, 1065, 1091, 1090
600, 649, 650, 676, 675, 1065, 1066, 1092, 1091
601, 651, 652, 678, 677, 1067, 1068, 1094, 1093
602, 652, 653, 679, 678, 1068, 1069, 1095, 1094
603, 653, 654, 680, 679, 1069, 1070, 1096, 1095
604, 654, 655, 681, 680, 1070, 1071, 1097, 1096
605, 655, 656, 682, 681, 1071, 1072, 1098, 1097
606, 656, 657, 683, 682, 1072, 1073, 1099, 1098
607, 657, 658, 684, 683, 1073, 1074, 1100, 1099
608, 658, 659, 685, 684, 1074, 1075, 1101, 1100
609, 659, 660, 686, 685, 1075, 1076, 1102, 1101
610, 660, 661, 687, 686, 1076, 1077, 1103, 1102
611, 661, 662, 688, 687, 1077, 1078, 1104, 1103
612, 662, 663, 689, 688, 1078, 1079, 1105, 1104
613, 663, 664, 690, 689, 1079, 1080, 1106, 1105
614, 664, 665, 691, 690, 1080, 1081, 1107, 1106
615, 665, 666, 692, 691, 1081, 1082, 1108, 1107
616, 666, 667, 693, 692, 1082, 1083, 1109, 1108
617, 667, 668, 694, 693, 1083, 1084, 1110, 1109
618, 668, 669, 695, 694, 1084, 1085, 1111, 1110
619, 669, 670, 696, 695, 1085, 1086, 1112, 1111
620, 670, 671, 697, 696, 1086, 1087, 1113, 1112
621, 671, 672, 698, 697, 1087, 1088, 1114, 1113
622, 672, 673, 699, 698, 1088, 1089, 1115, 1114
623, 673, 674, 700, 699, 1089, 1090, 1116, 1115
624, 674, 675, 701, 700, 1090, 1091, 1117, 1116
625, 675, 676, 702, 701, 1091, 1092, 1118, 1117
626, 677, 678, 704, 703, 1093, 1094, 1120, 1119
627, 678, 679, 705, 704, 1094, 1095, 1121, 1120
628, 679, 680, 706, 705, 1095, 1096, 1122, 1121
629, 680, 681, 707, 706, 1096, 1097, 1123, 1122
630, 681, 682, 708, 707, 1097, 1098, 1124, 1123
631, 682, 683, 709, 708, 1098, 1099, 1125, 1124
632, 683, 684, 710, 709, 1099, 1100, 1126, 1125
633, 684, 685, 711, 710, 1100, 1101, 1127, 1126
634, 685, 686, 712, 711, 1101, 1102, 1128, 1127
635, 686, 687, 713, 712, 1102, 1103, 1129, 1128
636, 687, 688, 714, 713, 1103, 1104, 1130, 1129
637, 688, 689, 715, 714, 1104, 1105, 1131, 1130
638, 689, 690, 716, 715, 1105, 1106, 1132, 1131
639, 690, 691, 717, 716, 1106, 1107, 1133, 1132
640, 691, 692, 718, 717, 1107, 1108, 1134, 1133
641, 692, 693, 719, 718, 1108, 1109, 1135, 1134
642, 693, 694, 720, 719, 1109, 1110, 1136, 1135
643, 694, 695, 721, 720, 1110, 1111, 1137, 1136
644, 695, 696, 722, 721, 1111, 1112, 1138, 1137
645, 696, 697, 723, 722, 1112, 1113, 1139, 1138
646, 697, 698, 724, 723, 1113, 1114, 1140, 1139
647, 698, 699, 725, 724, 1114, 1115, 1141, 1140
648, 699, 700, 726, 725, 1115, 1116, 1142, 1141
649, 700, 701, 727, 726, 1116, 1117, 1143, 1142
650, 701, 702, 728, 727, 1117, 1118, 1144, 1143
651, 703, 704, 730, 729, 1119, 1120, 1146, 1145
652, 704, 705, 731, 730, 1120, 1121, 1147, 1146
653, 705, 706, 732, 731, 1121, 1122, 1148, 1147
654, 706, 707, 733, 732, 1122, 1123, 1149, 1148
655, 707, 708, 734, 733, 1123, 1124, 1150, 1149
656, 708, 709, 735, 734, 1124, 1125, 1151, 1150
657, 709, 710, 736, 735, 1125, 1126, 1152, 1151
658, 710, 711, 737, 736, 1126, 1127, 1153, 1152
659, 711, 712, 738, 737, 1127, 1128, 1154, 1153
660, 712, 713, 739, 738, 1128, 1129, 1155, 1154
661, 713, 714, 740, 739, 1129, 1130, 1156, 1155
662, 714, 715, 741, 740, 1130, 1131, 1157, 1156
663, 715, 716, 742, 741, 1131, 1132, 1158, 1157
664, 716, 717, 743, 742, 1132, 1133, 1159, 1158
665, 717, 718, 744, 743, 1133, 1134, 1160, 1159
666, 718, 719, 745, 744, 1134, 1135, 1161, 1160
667, 719, 720, 746, 745, 1135, 1136, 1162, 1161
668, 720, 721, 747, 746, 1136, 1137, 1163, 1162
669, 721, 722, 748, 747, 1137, 1138, 1164, 1163
670, 722, 723, 749, 748, 1138, 1139, 1165, 1164
671, 723, 724, 750, 749, 1139, 1140, 1166, 1165
672, 724, 725, 751, 750, 1140, 1141, 1167, 1166
673, 725, 726, 752, 751, 1141, 1142, 1168, 1167
674, 726, 727, 753, 752, 1142, 1143, 1169, 1168
675, 727, 728, 754, 753, 1143, 1144, 1170, 1169
676, 729, 730, 756, 755, 1145, 1146, 1172, 1171
677, 730, 731, 757, 756, 1146, 1147, 1173, 1172
678, 731, 732, 758, 757, 1147, 1148, 1174, 1173
679, 732, 733, 759, 758, 1148, 1149, 1175, 1174
680, 733, 734, 760, 759, 1149, 1150, 1176, 1175
681, 734, 735, 761, 760, 1150, 1151, 1177, 1176
682, 735, 736, 762, 761, 1151, 1152, 1178, 1177
683, 736, 737, 763, 762, 1152, 1153, 1179, 1178
684, 737, 738, 764, 763, 1153, 1154, 1180, 1179
685, 738, 739, 765, 764, 1154, 1155, 1181, 1180
686, 739, 740, 766, 765, 1155, 1156, 1182, 1181
687, 740, 741, 767, 766, 1156, 1157, 1183, 1182
688, 741, 742, 768, 767, 1157, 1158, 1184, 1183
689, 742, 743, 769, 768, 1158, 1159, 1185, 1184
690, 743, 744, 770, 769, 1159, 1160, 1186, 1185
691, 744, 745, 771, 770, 1160, 1161, 1187, 1186
692, 745, 746, 772, 771, 1161, 1162, 1188, 1187
693, 746, 747, 773, 772, 1162, 1163, 1189, 1188
694, 747, 748, 774, 773, 1163, 1164, 1190, 1189
695, 748, 749, 775, 774, 1164, 1165, 1191, 1190
696, 749, 750, 776, 775, 1165, 1166, 1192, 1191
697, 750, 751, 777, 776, 1166, 1167, 1193, 1192
698, 751, 752, 778, 777, 1167, 1168, 1194, 1193
699, 752, 753, 779, 778, 1168, 1169, 1195, 1194
700, 753, 754, 780, 779, 1169, 1170, 1196, 1195
701, 755, 756, 782, 781, 1171, 1172, 1198, 1197
702, 756, 757, 783, 782, 1172, 1173, 1199, 1198
703, 757, 758, 784, 783, 1173, 1174, 1200, 1199
704, 758, 759, 785, 784, 1174, 1175, 1201, 1200
705, 759, 760, 786, 785, 1175, 1176, 1202, 1201
706, 760, 761, 787, 786, 1176, 1177, 1203, 1202
707, 761, 762, 788, 787, 1177, 1178, 1204, 1203
708, 762, 763, 789, 788, 1178, 1179, 1205, 1204
709, 763, 764, 790, 789, 1179, 1180, 1206, 1205
710, 764, 765, 791, 790, 1180, 1181, 1207, 1206
711, 765, 766, 792, 791, 1181, 1182, 1208, 1207
712, 766, 767, 793, 792, 1182, 1183, 1209, 1208
713, 767, 768, 794, 793, 1183, 1184, 1210, 1209
714, 768, 769, 795, 794, 1184, 1185, 1211, 1210
715, 769, 770, 796, 795, 1185, 1186, 1212, 1211
716, 770, 771, 797, 796, 1186, 1187, 1213, 1212
717, 771, 772, 798, 797, 1187, 1188, 1214, 1213
718, 772, 773, 799, 798, 1188, 1189, 1215, 1214
719, 773, 774, 800, 799, 1189, 1190, 1216, 1215
720, 774, 775, 801, 800, 1190, 1191, 1217, 1216
721, 775, 776, 802, 801, 1191, 1192, 1218, 1217
722, 776, 777, 803, 802, 1192, 1193, 1219, 1218
723, 777, 778, 804, 803, 1193, 1194, 1220, 1219
724, 778, 779, 805, 804, 1194, 1195, 1221, 1220
725, 779, 780, 806, 805, 1195, 1196, 1222, 1221
726, 781, 782, 808, 807, 1197, 1198, 1224, 1223
727, 782, 783, 809, 808, 1198, 1199, 1225, 1224
728, 783, 784, 810, 809, 1199, 1200, 1226, 1225
729, 784, 785, 811, 810, 1200, 1201, 1227, 1226
730, 785, 786, 812, 811, 1201, 1202, 1228, 1227
731, 786, 787, 813, 812, 1202, 1203, 1229, 1228
732, 787, 788, 814, 813, 1203, 1204, 1230, 1229
733, 788, 789, 815, 814, 1204, 1205, 1231, 1230
734, 789, 790, 816, 815, 1205, 1206, 1232, 1231
735, 790, 791, 817, 816, 1206, 1207, 1233, 1232
736, 791, 792, 818, 817, 1207, 1208, 1234, 1233
737, 792, 793, 819, 818, 1208, 1209, 1235, 1234
738, 793, 794, 820, 819, 1209, 1210, 1236, 1235
739, 794, 795, 821, 820, 1210, 1211, 1237, 1236
740, 795, 796, 822, 821, 1211, 1212, 1238, 1237
741, 796, 797, 823, 822, 1212, 1213, 1239, 1238
742, 797, 798, 824, 823, 1213, 1214, 1240, 1239
743, 798, 799, 825, 824, 1214, 1215, 1241, 1240
744, 799, 800, 826, 825, 1215, 1216, 1242, 1241
745, 800, 801, 827, 826, 1216, 1217, 1243, 1242
746, 801, 802, 828, 827, 1217, 1218, 1244, 1243
747, 802, 803, 829, 828, 1218, 1219, 1245, 1244
748, 803, 804, 830, 829, 1219, 1220, 1246, 1245
749, 804, 805, 831, 830, 1220, 1221, 1247, 1246
750, 805, 806, 832, 831, 1221, 1222, 1248, 1247
751, 833, 834, 860, 859, 1249, 1250, 1276, 1275
752, 834, 835, 861, 860, 1250, 1251, 1277, 1276
753, 835, 836, 862, 861, 1251, 1252, 1278, 1277
754, 836, 837, 863, 862, 1252, 1253, 1279, 1278
755, 837, 838, 864, 863, 1253, 1254, 1280, 1279
756, 838, 839, 865, 864, 1254, 1255, 1281, 1280
757, 839, 840, 866, 865, 1255, 1256, 1282, 1281
758, 840, 841, 867, 866, 1256, 1257, 1283, 1282
759, 841, 842, 868, 867, 1257, 1258, 1284, 1283
760, 842, 843, 869, 868, 1258, 1259, 1285, 1284
761, 843, 844, 870, 869, 1259, 1260, 1286, 1285
762, 844, 845, 871, 870, 1260, 1261, 1287, 1286
763, 845, 846, 872, 871, 1261, 1262, 1288, 1287
764, 846, 847, 873, 872, 1262, 1263, 1289, 1288
765, 847, 848, 874, 873, 1263, 1264, 1290, 1289
766, 848, 849, 875, 874, 1264, 1265, 1291, 1290
767, 849, 850, 876, 875, 1265, 1266, 1292, 1291
768, 850, 851, 877, 876, 1266, 1267, 1293, 1292
769, 851, 852, 878, 877, 1267, 1268, 1294, 1293
770, 852, 853, 879, 878, 1268, 1269, 1295, 1294
771, 853, 854, 880, 879, 1269, 1270, 1296, 1295
772, 854, 855, 881, 880, 1270, 1271, 1297, 1296
773, 855, 856, 882, 881, 1271, 1272, 1298, 1297
774, 856, 857, 883, 882, 1272, 1273, 1299, 1298
775, 857, 858, 884, 883, 1273, 1274, 1300, 1299
776, 859, 860, 886, 885, 1275, 1276, 1302, 1301
777, 860, 861, 887, 886, 1276, 1277, 1303, 1302
778, 861, 862, 888, 887, 1277, 1278, 1304, 1303
779, 862, 863, 889, 888, 1278, 1279, 1305, 1304
780, 863, 864, 890, 889, 1279, 1280, 1306, 1305
781, 864, 865, 891, 890, 1280, 1281, 1307, 1306
782, 865, 866, 892, 891, 1281, 1282, 1308, 1307
783, 866, 867, 893, 892, 1282, 1283, 1309, 1308
784, 867, 868, 894, 893, 1283, 1284, 1310, 1309
785, 868, 869, 895, 894, 1284, 1285, 1311, 1310
786, 869, 870, 896, 895, 1285, 1286, 1312, 1311
787, 870, 871, 897, 896, 1286, 1287, 1313, 1312
788, 871, 872, 898, 897, 1287, 1288, 1314, 1313
789, 872, 873, 899, 898, 1288, 1289, 1315, 1314
790, 873, 874, 900, 899, 1289, 1290, 1316, 1315
791, 874, 875, 901, 900, 1290, 1291, 1317, 1316
792, 875, 876, 902, 901, 1291, 1292, 1318, 1317
793, 876, 877, 903, 902, 1292, 1293, 1319, 1318
794, 877, 878, 904, 903, 1293, 1294, 1320, 1319
795, 878, 879, 905, 904, 1294, 1295, 1321, 1320
796, 879, 880, 906, 905, 1295, 1296, 1322, 1321
797, 880, 881, 907, 906, 1296, 1297, 1323, 1322
798, 881, 882, 908, 907, 1297, 1298, 1324, 1323
799, 882, 883, 909, 908, 1298, 1299, 1325, 1324
800, 883, 884, 910, 909, 1299, 1300, 1326, 1325
801, 885, 886, 912, 911, 1301, 1302, 1328, 1327
802, 886, 887, 913, 912, 1302, 1303, 1329, 1328
803, 887, 888, 914, 913, 1303, 1304, 1330, 1329
804, 888, 889, 915, 914, 1304, 1305, 1331, 1330
805, 889, 890, 916, 915, 1305, 1306, 1332, 1331
806, 890, 891, 917, 916, 1306, 1307, 1333, 1332
807, 891, 892, 918, 917, 1307, 1308, 1334, 1333
808, 892, 893, 919, 918, 1308, 1309, 1335, 1334
809, 893, 894, 920, 919, 1309, 1310, 1336, 1335
810, 894, 895, 921, 920, 1310, 1311, 1337, 1336
811, 895, 896, 922, 921, 1311, 1312, 1338, 1337
812, 896, 897, 923, 922, 1312, 1313, 1339, 1338
813, 897, 898, 924, 923, 1313, 1314, 1340, 1339
814, 898, 899, 925, 924, 1314, 1315, 1341, 1340
815, 899, 900, 926, 925, 1315, 1316, 1342, 1341
816, 900, 901, 927, 926, 1316, 1317, 1343, 1342
817, 901, 902, 928, 927, 1317, 1318, 1344, 1343
818, 902, 903, 929, 928, 1318, 1319, 1345, 1344
819, 903, 904, 930, 929, 1319, 1320, 1346, 1345
820, 904, 905, 931, 930, 1320, 1321, 1347, 1346
821, 905, 906, 932, 931, 1321, 1322, 1348, 1347
822, 906, 907, 933, 932, 1322, 1323, 1349, 1348
823, 907, 908, 934, 933, 1323, 1324, 1350, 1349
824, 908, 909, 935, 934, 1324, 1325, 1351, 1350
825, 909, 910, 936, 935, 1325, 1326, 1352, 1351
826, 911, 912, 938, 937, 1327, 1328, 1354, 1353
827, 912, 913, 939, 938, 1328, 1329, 1355, 1354
828, 913, 914, 940, 939, 1329, 1330, 1356, 1355
829, 914, 915, 941, 940, 1330, 1331, 1357, 1356
830, 915, 916, 942, 941, 1331, 1332, 1358, 1357
831, 916, 917, 943, 942, 1332, 1333, 1359, 1358
832, 917, 918, 944, 943, 1333, 1334, 1360, 1359
833, 918, 919, 945, 944, 1334, 1335, 1361, 1360
834, 919, 920, 946, 945, 1335, 1336, 1362, 1361
835, 920, 921, 947, 946, 1336, 1337, 1363, 1362
836, 921, 922, 948, 947, 1337, 1338, 1364, 1363
837, 922, 923, 949, 948, 1338, 1339, 1365, 1364
838, 923, 924, 950, 949, 1339, 1340, 1366, 1365
839, 924, 925, 951, 950, 1340, 1341, 1367, 1366
840, 925, 926, 952, 951, 1341, 1342, 1368, 1367
841, 926, 927, 953, 952, 1342, 1343, 1369, 1368
842, 927, 928, 954, 953, 1343, 1344, 1370, 1369
843, 928, 929, 955, 954, 1344, 1345, 1371, 1370
844, 929, 930, 956, 955, 1345, 1346, 1372, 1371
845, 930, 931, 957, 956, 1346, 1347, 1373, 1372
846, 931, 932, 958, 957, 1347, 1348, 1374, 1373
847, 932, 933, 959, 958, 1348, 1349, 1375, 1374
848, 933, 934, 960, 959, 1349, 1350, 1376, 1375
849, 934, 935, 961, 960, 1350, 1351, 1377, 1376
850, 935, 936, 962, 961, 1351, 1352, 1378, 1377
851, 937, 938, 964, 963, 1353, 1354, 1380, 1379
852, 938, 939, 965, 964, 1354, 1355, 1381, 1380
853, 939, 940, 966, 965, 1355, 1356, 1382, 1381
854, 940, 941, 967, 966, 1356, 1357, 1383, 1382
855, 941, 942, 968, 967, 1357, 1358, 1384, 1383
856, 942, 943, 969, 968, 1358, 1359, 1385, 1384
857, 943, 944, 970, 969, 1359, 1360, 1386, 1385
858, 944, 945, 971, 970, 1360, 1361, 1387, 1386
859, 945, 946, 972, 971, 1361, 1362, 1388, 1387
860, 946, 947, 973, 972, 1362, 1363, 1389, 1388
861, 947, 948, 974, 973, 1363, 1364, 1390, 1389
862, 948, 949, 975, 974, 1364, 1365, 1391, 1390
863, 949, 950, 976, 975, 1365, 1366, 1392, 1391
864, 950, 951, 977, 976, 1366, 1367, 1393, 1392
865, 951, 952, 978, 977, 1367, 1368, 1394, 1393
866, 952, 953, 979, 978, 1368, 1369, 1395, 1394
867, 953, 954, 980, 979, 1369, 1370, 1396, 1395
868, 954, 955, 981, 980, 1370, 1371, 1397, 1396
869, 955, 956, 982, 981, 1371, 1372, 1398, 1397
870, 956, 957, 983, 982, 1372, 1373, 1399, 1398
871, 957, 958, 984, 983, 1373, 1374, 1400, 1399
872, 958, 959, 985, 984, 1374, 1375, 1401, 1400
873, 959, 960, 986, 985, 1375, 1376, 1402, 1401
874, 960, 961, 987, 986, 1376, 1377, 1403, 1402
875, 961, 962, 988, 987, 1377, 1378, 1404, 1403
876, 963, 964, 990, 989, 1379, 1380, 1406, 1405
877, 964, 965, 991, 990, 1380, 1381, 1407, 1406
878, 965, 966, 992, 991, 1381, 1382, 1408, 1407
879, 966, 967, 993, 992, 1382, 1383, 1409, 1408
880, 967, 968, 994, 993, 1383, 1384, 1410, 1409
881, 968, 969, 995, 994, 1384, 1385, 1411, 1410
882, 969, 970, 996, 995, 1385, 1386, 1412, 1411
883, 970, 971, 997, 996, 1386, 1387, 1413, 1412
884, 971, 972, 998, 997, 1387, 1388, 1414, 1413
885, 972, 973, 999, 998, 1388, 1389, 1415, 1414
886, 973, 974, 1000, 999, 1389, 1390, 1416, 1415
887, 974, 975, 1001, 1000, 1390, 1391, 1417, 1416
888, 975, 976, 1002, 1001, 1391, 1392, 1418, 1417
889, 976, 977, 1003, 1002, 1392, 1393, 1419, 1418
890, 977, 978, 1004, 1003, 1393, 1394, 1420, 1419
891, 978, 979, 1005, 1004, 1394, 1395, 1421, 1420
892, 979, 980, 1006, 1005, 1395, 1396, 1422, 1421
893, 980, 981, 1007, 1006, 1396, 1397, 1423, 1422
894, 981, 982, 1008, 1007, 1397, 1398, 1424, 1423
895, 982, 983, 1009, 1008, 1398, 1399, 1425, 1424
896, 983, 984, 1010, 1009, 1399, 1400, 1426, 1425
897, 984, 985, 1011, 1010, 1400, 1401, 1427, 1426
898, 985, 986, 1012, 1011, 1401, 1402, 1428, 1427
899, 986, 987, 1013, 1012, 1402, 1403, 1429, 1428
900, 987, 988, 1014, 1013, 1403, 1404, 1430, 1429
901, 989, 990, 1016, 1015, 1405, 1406, 1432, 1431
902, 990, 991, 1017, 1016, 1406, 1407, 1433, 1432
903, 991, 992, 1018, 1017, 1407, 1408, 1434, 1433
904, 992, 993, 1019, 1018, 1408, 1409, 1435, 1434
905, 993, 994, 1020, 1019, 1409, 1410, 1436, 1435
906, 994, 995, 1021, 1020, 1410, 1411, 1437, 1436
907, 995, 996, 1022, 1021, 1411, 1412, 1438, 1437
908, 996, 997, 1023, 1022, 1412, 1413, 1439, 1438
909, 997, 998, 1024, 1023, 1413, 1414, 1440, 1439
910, 998, 999, 1025, 1024, 1414, 1415, 1441, 1440
911, 999, 1000, 1026, 1025, 1415, 1416, 1442, 1441
912, 1000, 1001, 1027, 1026, 1416, 1417, 1443, 1442
913, 1001, 1002, 1028, 1027, 1417, 1418, 1444, 1443
914, 1002, 1003, 1029, 1028, 1418, 1419, 1445, 1444
915, 1003, 1004, 1030, 1029, 1419, 1420, 1446, 1445
916, 1004, 1005, 1031, 1030, 1420, 1421, 1447, 1446
917, 1005, 1006, 1032, 1031, 1421, 1422, 1448, 1447
918, 1006, 1007, 1033, 1032, 1422, 1423, 1449, 1448
919, 1007, 1008, 1034, 1033, 1423, 1424, 1450, 1449
920, 1008, 1009, 1035, 1034, 1424, 1425, 1451, 1450
921, 1009, 1010, 1036, 1035, 1425, 1426, 1452, 1451
922, 1010, 1011, 1037, 1036, 1426, 1427, 1453, 1452
923, 1011, 1012, 1038, 1037, 1427, 1428, 1454, 1453
924, 1012, 1013, 1039, 1038, 1428, 1429, 1455, 1454
925, 1013, 1014, 1040, 1039, 1429, 1430, 1456, 1455
926, 1015, 1016, 1042, 1041, 1431, 1432, 1458, 1457
927, 1016, 1017, 1043, 1042, 1432, 1433, 1459, 1458
928, 1017, 1018, 1044, 1043, 1433, 1434, 1460, 1459
929, 1018, 1019, 1045, 1044, 1434, 1435, 1461, 1460
930, 1019, 1020, 1046, 1045, 1435, 1436, 1462, 1461
931, 1020, 1021, 1047, 1046, 1436, 1437, 1463, 1462
932, 1021, 1022, 1048, 1047, 1437, 1438, 1464, 1463
933, 1022, 1023, 1049, 1048, 1438, 1439, 1465, 1464
934, 1023, 1024, 1050, 1049, 1439, 1440, 1466, 1465
935, 1024, 1025, 1051, 1050, 1440, 1441, 1467, 1466
936, 1025, 1026, 1052, 1051, 1441, 1442, 1468, 1467
937, 1026, 1027, 1053, 1052, 1442, 1443, 1469, 1468
938, 1027, 1028, 1054, 1053, 1443, 1444, 1470, 1469
939, 1028, 1029, 1055, 1054, 1444, 1445, 1471, 1470
940, 1029, 1030, 1056, 1055, 1445, 1446, 1472, 1471
941, 1030, 1031, 1057, 1056, 1446, 1447, 1473, 1472
942, 1031, 1032, 1058, 1057, 1447, 1448, 1474, 1473
943, 1032, 1033, 1059, 1058, 1448, 1449, 1475, 1474
944, 1033, 1034, 1060, 1059, 1449, 1450, 1476, 1475
945, 1034, 1035, 1061, 1060, 1450, 1451, 1477, 1476
946, 1035, 1036, 1062, 1061, 1451, 1452, 1478, 1477
947, 1036, 1037, 1063, 1062, 1452, 1453, 1479, 1478
948, 1037, 1038, 1064, 1063, 1453, 1454, 1480, 1479
949, 1038, 1039, 1065, 1064, 1454, 1455, 1481, 1480
950, 1039, 1040, 1066, 1065, 1455, 1456, 1482, 1481
951, 1041, 1042, 1068, 1067, 1457, 1458, 1484, 1483
952, 1042, 1043, 1069, 1068, 1458, 1459, 1485, 1484
953, 1043, 1044, 1070, 1069, 1459, 1460, 1486, 1485
954, 1044, 1045, 1071, 1070, 1460, 1461, 1487, 1486
955, 1045, 1046, 1072, 1071, 1461, 1462, 1488, 1487
956, 1046, 1047, 1073, 1072, 1462, 1463, 1489, 1488
957, 1047, 1048, 1074, 1073, 1463, 1464, 1490, 1489
958, 1048, 1049, 1075, 1074, 1464, 1465, 1491, 1490
959, 1049, 1050, 1076, 1075, 1465, 1466, 1492, 1491
960, 1050, 1051, 1077, 1076, 1466, 1467, 1493, 1492
961, 1051, 1052, 1078, 1077, 1467, 1468, 1494, 1493
962, 1052, 1053, 1079, 1078, 1468, 1469, 1495, 1494
963, 1053, 1054, 1080, 1079, 1469, 1470, 1496, 1495
964, 1054, 1055, 1081, 1080, 1470, 1471, 1497, 1496
965, 1055, 1056, 1082, 1081, 1471, 1472, 1498, 1497
966, 1056, 1057, 1083, 1082, 1472, 1473, 1499, 1498
967, 1057, 1058, 1084, 1083, 1473, 1474, 1500, 1499
968, 1058, 1059, 1085, 1084, 1474, 1475, 1501, 1500
969, 1059, 1060, 1086, 1085, 1475, 1476, 1502, 1501
970, 1060, 1061, 1087, 1086, 1476, 1477, 1503, 1502
971, 1061, 1062, 1088, 1087, 1477, 1478, 1504, 1503
972, 1062, 1063, 1089, 1088, 1478, 1479, 1505, 1504
973, 1063, 1064, 1090, 1089, 1479, 1480, 1506, 1505
974, 1064, 1065, 1091, 1090, 1480, 1481, 1507, 1506
975, 1065, 1066, 1092, 1091, 1481, 1482, 1508, 1507
976, 1067, 1068, 1094, 1093, 1483, 1484, 1510, 1509
977, 1068, 1069, 1095, 1094, 1484, 1485, 1511, 1510
978, 1069, 1070, 1096, 1095, 1485, 1486, 1512, 1511
979, 1070, 1071, 1097, 1096, 1486, 1487, 1513, 1512
980, 1071, 1072, 1098, 1097, 1487, 1488, 1514, 1513
981, 1072, 1073, 1099, 1098, 1488, 1489, 1515, 1514
982, 1073, 1074, 1100, 1099, 1489, 1490, 1516, 1515
983, 1074, 1075, 1101, 1100, 1490, 1491, 1517, 1516
984, 1075, 1076, 1102, 1101, 1491, 1492, 1518, 1517
985, 1076, 1077, 1103, 1102, 1492, 1493, 1519, 1518
986, 1077, 1078, 1104, 1103, 1493, 1494, 1520, 1519
987, 1078, 1079, 1105, 1104, 1494, 1495, 1521, 1520
988, 1079, 1080, 1106, 1105, 1495, 1496, 1522, 1521
989, 1080, 1081, 1107, 1106, 1496, 1497, 1523, 1522
990, 1081, 1082, 1108, 1107, 1497, 1498, 1524, 1523
991, 1082, 1083, 1109, 1108, 1498, 1499, 1525, 1524
992, 1083, 1084, 1110, 1109, 1499, 1500, 1526, 1525
993, 1084, 1085, 1111, 1110, 1500, 1501, 1527, 1526
994, 1085, 1086, 1112, 1111, 1501, 1502, 1528, 1527
995, 1086, 1087, 1113, 1112, 1502, 1503, 1529, 1528
996, 1087, 1088, 1114, 1113, 1503, 1504, 1530, 1529
997, 1088, 1089, 1115, 1114, 1504, 1505, 1531, 1530
998, 1089, 1090, 1116, 1115, 1505, 1506, 1532, 1531
999, 1090, 1091, 1117, 1116, 1506, 1507, 1533, 1532
1000, 1091, 1092, 1118, 1117, 1507, 1508, 1534, 1533
1001, 1093, 1094, 1120, 1119, 1509, 1510, 1536, 1535
1002, 1094, 1095, 1121, 1120, 1510, 1511, 1537, 1536
1003, 1095, 1096, 1122, 1121, 1511, 1512, 1538, 1537
1004, 1096, 1097, 1123, 1122, 1512, 1513, 1539, 1538
1005, 1097, 1098, 1124, 1123, 1513, 1514, 1540, 1539
1006, 1098, 1099, 1125, 1124, 1514, 1515, 1541, 1540
1007, 1099, 1100, 1126, 1125, 1515, 1516, 1542, 1541
1008, 1100, 1101, 1127, 1126, 1516, 1517, 1543, 1542
1009, 1101, 1102, 1128, 1127, 1517, 1518, 1544, 1543
1010, 1102, 1103, 1129, 1128, 1518, 1519, 1545, 1544
1011, 1103, 1104, 1130, 1129, 1519, 1520, 1546, 1545
1012, 1104, 1105, 1131, 1130, 1520, 1521, 1547, 1546
1013, 1105, 1106, 1132, 1131, 1521, 1522, 1548, 1547
1014, 1106, 1107, 1133, 1132, 1522, 1523, 1549, 1548
1015, 1107, 1108, 1134, 1133, 1523, 1524, 1550, 1549
1016, 1108, 1109, 1135, 1134, 1524, 1525, 1551, 1550
1017, 1109, 1110, 1136, 1135, 1525, 1526, 1552, 1551
1018, 1110, 1111, 1137, 1136, 1526, 1527, 1553, 1552
1019, 1111, 1112, 1138, 1137, 1527, 1528, 1554, 1553
1020, 1112, 1113, 1139, 1138, 1528, 1529, 1555, 1554
1021, 1113, 1114, 1140, 1139, 1529, 1530, 1556, 1555
1022, 1114, 1115, 1141, 1140, 1530, 1531, 1557, 1556
1023, 1115, 1116, 1142, 1141, 1531, 1532, 1558, 1557
1024, 1116, 1117, 1143, 1142, 1532, 1533, 1559, 1558
1025, 1117, 1118, 1144, 1143, 1533, 1534, 1560, 1559
1026, 1119, 1120, 1146, 1145, 1535, 1536, 1562, 1561
1027, 1120, 1121, 1147, 1146, 1536, 1537, 1563, 1562
1028, 1121, 1122, 1148, 1147, 1537, 1538, 1564, 1563
1029, 1122, 1123, 1149, 1148, 1538, 1539, 1565, 1564
1030, 1123, 1124, 1150, 1149, 1539, 1540, 1566, 1565
1031, 1124, 1125, 1151, 1150, 1540, 1541, 1567, 1566
1032, 1125, 1126, 1152, 1151, 1541, 1542, 1568, 1567
1033, 1126, 1127, 1153, 1152, 1542, 1543, 1569, 1568
1034, 1127, 1128, 1154, 1153, 1543, 1544, 1570, 1569
1035, 1128, 1129, 1155, 1154, 1544, 1545, 1571, 1570
1036, 1129, 1130, 1156, 1155, 1545, 1546, 1572, 1571
1037, 1130, 1131, 1157, 1156, 1546, 1547, 1573, 1572
1038, 1131, 1132, 1158, 1157, 1547, 1548, 1574, 1573
1039, 1132, 1133, 1159, 1158, 1548, 1549, 1575, 1574
1040, 1133, 1134, 1160, 1159, 1549, 1550, 1576, 1575
1041, 1134, 1135, 1161, 1160, 1550, 1551, 1577, 1576
1042, 1135, 1136, 1162, 1161, 1551, 1552, 1578, 1577
1043, 1136, 1137, 1163, 1162, 1552, 1553, 1579, 1578
1044, 1137, 1138, 1164, 1163, 1553, 1554, 1580, 1579
1045, 1138, 1139, 1165, 1164, 1554, 1555, 1581, 1580
1046, 1139, 1140, 1166, 1165, 1555, 1556, 1582, 1581
1047, 1140, 1141, 1167, 1166, 1556, 1557, 1583, 1582
1048, 1141, 1142, 1168, 1167, 1557, 1558, 1584, 1583
1049, 1142, 1143, 1169, 1168, 1558, 1559, 1585, 1584
1050, 1143, 1144, 1170, 1169, 1559, 1560, 1586, 1585
1051, 1145, 1146, 1172, 1171, 1561, 1562, 1588, 1587
1052, 1146, 1147, 1173, 1172, 1562, 1563, 1589, 1588
1053, 1147, 1148, 1174, 1173, 1563, 1564, 1590, 1589
1054, 1148, 1149, 1175, 1174, 1564, 1565, 1591, 1590
1055, 1149, 1150, 1176, 1175, 1565, 1566, 1592, 1591
1056, 1150, 1151, 1177, 1176, 1566, 1567, 1593, 1592
1057, 1151, 1152, 1178, 1177, 1567, 1568, 1594, 1593
1058, 1152, 1153, 1179, 1178, 1568, 1569, 1595, 1594
1059, 1153, 1154, 1180, 1179, 1569, 1570, 1596, 1595
1060, 1154, 1155, 1181, 1180, 1570, 1571, 1597, 1596
1061, 1155, 1156, 1182, 1181, 1571, 1572, 1598, 1597
1062, 1156, 1157, 1183, 1182, 1572, 1573, 1599, 1598
1063, 1157, 1158, 1184, 1183, 1573, 1574, 1600, 1599
1064, 1158, 1159, 1185, 1184, 1574, 1575, 1601, 1600
1065, 1159, 1160, 1186, 1185, 1575, 1576, 1602, 1601
1066, 1160, 1161, 1187, 1186, 1576, 1577, 1603, 1602
1067, 1161, 1162, 1188, 1187, 1577, 1578, 1604, 1603
1068, 1162, 1163, 1189, 1188, 1578, 1579, 1605, 1604
1069, 1163, 1164, 1190, 1189, 1579, 1580, 1606, 1605
1070, 1164, 1165, 1191, 1190, 1580, 1581, 1607, 1606
1071, 1165, 1166, 1192, 1191, 1581, 1582, 1608, 1607
1072, 1166, 1167, 1193, 1192, 1582, 1583, 1609, 1608
1073, 1167, 1168, 1194, 1193, 1583, 1584, 1610, 1609
1074, 1168, 1169, 1195, 1194, 1584, 1585, 1611, 1610
1075, 1169, 1170, 1196, 1195, 1585, 1586, 1612, 1611
1076, 1171, 1172, 1198, 1197, 1587, 1588, 1614, 1613
1077, 1172, 1173, 1199, 1198, 1588, 1589, 1615, 1614
1078, 1173, 1174, 1200, 1199, 1589, 1590, 1616, 1615
1079, 1174, 1175, 1201, 1200, 1590, 1591, 1617, 1616
1080, 1175, 1176, 1202, 1201, 1591, 1592, 1618, 1617
1081, 1176, 1177, 1203, 1202, 1592, 1593, 1619, 1618
1082, 1177, 1178, 1204, 1203, 1593, 1594, 1620, 1619
1083, 1178, 1179, 1205, 1204, 1594, 1595, 1621, 1620
1084, 1179, 1180, 1206, 1205, 1595, 1596, 1622, 1621
1085, 1180, 1181, 1207, 1206, 1596, 1597, 1623, 1622
1086, 1181, 1182, 1208, 1207, 1597, 1598, 1624, 1623
1087, 1182, 1183, 1209, 1208, 1598, 1599, 1625, 1624
1088, 1183, 1184, 1210, 1209, 1599, 1600, 1626, 1625
1089, 1184, 1185, 1211, 1210, 1600, 1601, 1627, 1626
1090, 1185, 1186, 1212, 1211, 1601, 1602, 1628, 1627
1091, 1186, 1187, 1213, 1212, 1602, 1603, 1629, 1628
1092, 1187, 1188, 1214, 1213, 1603, 1604, 1630, 1629
1093, 1188, 1189, 1215, 1214, 1604, 1605, 1631, 1630
1094, 1189, 1190, 1216, 1215, 1605, 1606, 1632, 1631
1095, 1190, 1191, 1217, 1216, 1606, 1607, 1633, 1632
1096, 1191, 1192, 1218, 1217, 1607, 1608, 1634, 1633
1097, 1192, 1193, 1219, 1218, 1608, 1609, 1635, 1634
1098, 1193, 1194, 1220, 1219, 1609, 1610, 1636, 1635
1099, 1194, 1195, 1221, 1220, 1610, 1611, 1637, 1636
1100, 1195, 1196, 1222, 1221, 1611, 1612, 1638, 1637
1101, 1197, 1198, 1224, 1223, 1613, 1614, 1640, 1639
1102, 1198, 1199, 1225, 1224, 1614, 1615, 1641, 1640
1103, 1199, 1200, 1226, 1225, 1615, 1616, 1642, 1641
1104, 1200, 1201, 1227, 1226, 1616, 1617, 1643, 1642
1105, 1201, 1202, 1228, 1227, 1617, 1618, 1644, 1643
1106, 1202, 1203, 1229, 1228, 1618, 1619, 1645, 1644
1107, 1203, 1204, 1230, 1229, 1619, 1620, 1646, 1645
1108, 1204, 1205, 1231, 1230, 1620, 1621, 1647, 1646
1109, 1205, 1206, 1232, 1231, 1621, 1622, 1648, 1647
1110, 1206, 1207, 1233, 1232, 1622, 1623, 1649, 1648
1111, 1207, 1208, 1234, 1233, 1623, 1624, 1650, 1649
1112, 1208, 1209, 1235, 1234, 1624, 1625, 1651, 1650
1113, 1209, 1210, 1236, 1235, 1625, 1626, 1652, 1651
1114, 1210, 1211, 1237, 1236, 1626, 1627, 1653, 1652
1115, 1211, 1212, 1238, 1237, 1627, 1628, 1654, 1653
1116, 1212, 1213, 1239, 1238, 1628, 1629, 1655, 1654
1117, 1213, 1214, 1240, 1239, 1629, 1630, 1656, 1655
1118, 1214, 1215, 1241, 1240, 1630, 1631, 1657, 1656
1119, 1215, 1216, 1242, 1241, 1631, 1632, 1658, 1657
1120, 1216, 1217, 1243, 1242, 1632, 1633, 1659, 1658
1121, 1217, 1218, 1244, 1243, 1633, 1634, 1660, 1659
1122, 1218, 1219, 1245, 1244, 1634, 1635, 1661, 1660
1123, 1219, 1220, 1246, 1245, 1635, 1636, 1662, 1661
1124, 1220, 1221, 1247, 1246, 1636, 1637, 1663, 1662
1125, 1221, 1222, 1248, 1247, 1637, 1638, 1664, 1663
1126, 1249, 1250, 1276, 1275, 1665, 1666, 1692, 1691
1127, 1250, 1251, 1277, 1276, 1666, 1667, 1693, 1692
1128, 1251, 1252, 1278, 1277, 1667, 1668, 1694, 1693
1129, 1252, 1253, 1279, 1278, 1668, 1669, 1695, 1694
1130, 1253, 1254, 1280, 1279, 1669, 1670, 1696, 1695
1131, 1254, 1255, 1281, 1280, 1670, 1671, 1697, 1696
1132, 1255, 1256, 1282, 1281, 1671, 1672, 1698, 1697
1133, 1256, 1257, 1283, 1282, 1672, 1673, 1699, 1698
1134, 1257, 1258, 1284, 1283, 1673, 1674, 1700, 1699
1135, 1258, 1259, 1285, 1284, 1674, 1675, 1701, 1700
1136, 1259, 1260, 1286, 1285, 1675, 1676, 1702, 1701
1137, 1260, 1261, 1287, 1286, 1676, 1677, 1703, 1702
1138, 1261, 1262, 1288, 1287, 1677, 1678, 1704, 1703
1139, 1262, 1263, 1289, 1288, 1678, 1679, 1705, 1704
1140, 1263, 1264, 1290, 1289, 1679, 1680, 1706, 1705
1141, 1264, 1265, 1291, 1290, 1680, 1681, 1707, 1706
1142, 1265, 1266, 1292, 1291, 1681, 1682, 1708, 1707
1143, 1266, 1267, 1293, 1292, 1682, 1683, 1709, 1708
1144, 1267, 1268, 1294, 1293, 1683, 1684, 1710, 1709
1145, 1268, 1269, 1295, 1294, 1684, 1685, 1711, 1710
1146, 1269, 1270, 1296, 1295, 1685, 1686, 1712, 1711
1147, 1270, 1271, 1297, 1296, 1686, 1687, 1713, 1712
1148, 1271, 1272, 1298, 1297, 1687, 1688, 1714, 1713
1149, 1272, 1273, 1299, 1298, 1688, 1689, 1715, 1714
1150, 1273, 1274, 1300, 1299, 1689, 1690, 1716, 1715
1151, 1275, 1276, 1302, 1301, 1691, 1692, 1718, 1717
1152, 1276, 1277, 1303, 1302, 1692, 1693, 1719, 1718
1153, 1277, 1278, 1304, 1303, 1693, 1694, 1720, 1719
1154, 1278, 1279, 1305, 1304, 1694, 1695, 1721, 1720
1155, 1279, 1280, 1306, 1305, 1695, 1696, 1722, 1721
1156, 1280, 1281, 1307, 1306, 1696, 1697, 1723, 1722
1157, 1281, 1282, 1308, 1307, 1697, 1698, 1724, 1723
1158, 1282, 1283, 1309, 1308, 1698, 1699, 1725, 1724
1159, 1283, 1284, 1310, 1309, 1699, 1700, 1726, 1725
1160, 1284, 1285, 1311, 1310, 1700, 1701, 1727, 1726
1161, 1285, 1286, 1312, 1311, 1701, 1702, 1728, 1727
1162, 1286, 1287, 1313, 1312, 1702, 1703, 1729, 1728
1163, 1287, 1288, 1314, 1313, 1703, 1704, 1730, 1729
1164, 1288, 1289, 1315, 1314, 1704, 1705, 1731, 1730
1165, 1289, 1290, 1316, 1315, 1705, 1706, 1732, 1731
1166, 1290, 1291, 1317, 1316, 1706, 1707, 1733, 1732
1167, 1291, 1292, 1318, 1317, 1707, 1708, 1734, 1733
1168, 1292, 1293, 1319, 1318, 1708, 1709, 1735, 1734
1169, 1293, 1294, 1320, 1319, 1709, 1710, 1736, 1735
1170, 1294, 1295, 1321, 1320, 1710, 1711, 1737, 1736
1171, 1295, 1296, 1322, 1321, 1711, 1712, 1738, 1737
1172, 1296, 1297, 1323, 1322, 1712, 1713, 1739, 1738
1173, 1297, 1298, 1324, 1323, 1713, 1714, 1740, 1739
1174, 1298, 1299, 1325, 1324, 1714, 1715, 1741, 1740
1175, 1299, 1300, 1326, 1325, 1715, 1716, 1742, 1741
1176, 1301, 1302, 1328, 1327, 1717, 1718, 1744, 1743
1177, 1302, 1303, 1329, 1328, 1718, 1719, 1745, 1744
1178, 1303, 1304, 1330, 1329, 1719, 1720, 1746, 1745
1179, 1304, 1305, 1331, 1330, 1720, 1721, 1747, 1746
1180, 1305, 1306, 1332, 1331, 1721, 1722, 1748, 1747
1181, 1306, 1307, 1333, 1332, 1722, 1723, 1749, 1748
1182, 1307, 1308, 1334, 1333, 1723, 1724, 1750, 1749
1183, 1308, 1309, 1335, 1334, 1724, 1725, 1751, 1750
1184, 1309, 1310, 1336, 1335, 1725, 1726, 1752, 1751
1185, 1310, 1311, 1337, 1336, 1726, 1727, 1753, 1752
1186, 1311, 1312, 1338, 1337, 1727, 1728, 1754, 1753
1187, 1312, 1313, 1339, 1338, 1728, 1729, 1755, 1754
1188, 1313, 1314, 1340, 1339, 1729, 1730, 1756, 1755
1189, 1314, 1315, 1341, 1340, 1730, 1731, 1757, 1756
1190, 1315, 1316, 1342, 1341, 1731, 1732, 1758, 1757
1191, 1316, 1317, 1343, 1342, 1732, 1733, 1759, 1758
1192, 1317, 1318, 1344, 1343, 1733, 1734, 1760, 1759
1193, 1318, 1319, 1345, 1344, 1734, 1735, 1761, 1760
1194, 1319, 1320, 1346, 1345, 1735, 1736, 1762, 1761
1195, 1320, 1321, 1347, 1346, 1736, 1737, 1763, 1762
1196, 1321, 1322, 1348, 1347, 1737, 1738, 1764, 1763
1197, 1322, 1323, 1349, 1348, 1738, 1739, 1765, 1764
1198, 1323, 1324, 1350, 1349, 1739, 1740, 1766, 1765
1199, 1324, 1325, 1351, 1350, 1740, 1741, 1767, 1766
1200, 1325, 1326, 1352, 1351, 1741, 1742, 1768, 1767
1201, 1327, 1328, 1354, 1353, 1743, 1744, 1770, 1769
1202, 1328, 1329, 1355, 1354, 1744, 1745, 1771, 1770
1203, 1329, 1330, 1356, 1355, 1745, 1746, 1772, 1771
1204, 1330, 1331, 1357, 1356, 1746, 1747, 1773, 1772
1205, 1331, 1332, 1358, 1357, 1747, 1748, 1774, 1773
1206, 1332, 1333, 1359, 1358, 1748, 1749, 1775, 1774
1207, 1333, 1334, 1360, 1359, 1749, 1750, 1776, 1775
1208, 1334, 1335, 1361, 1360, 1750, 1751, 1777, 1776
1209, 1335, 1336, 1362, 1361, 1751, 1752, 1778, 1777
1210, 1336, 1337, 1363, 1362, 1752, 1753, 1779, 1778
1211, 1337, 1338, 1364, 1363, 1753, 1754, 1780, 1779
1212, 1338, 1339, 1365, 1364, 1754, 1755, 1781, 1780
1213, 1339, 1340, 1366, 1365, 1755, 1756, 1782, 1781
1214, 1340, 1341, 1367, 1366, 1756, 1757, 1783, 1782
1215, 1341, 1342, 1368, 1367, 1757, 1758, 1784, 1783
1216, 1342, 1343, 1369, 1368, 1758, 1759, 1785, 1784
1217, 1343, 1344, 1370, 1369, 1759, 1760, 1786, 1785
1218, 1344, 1345, 1371, 1370, 1760, 1761, 1787, 1786
1219, 1345, 1346, 1372, 1371, 1761, 1762, 1788, 1787
1220, 1346, 1347, 1373, 1372, 1762, 1763, 1789, 1788
1221, 1347, 1348, 1374, 1373, 1763, 1764, 1790, 1789
1222, 1348, 1349, 1375, 1374, 1764, 1765, 1791, 1790
1223, 1349, 1350, 1376, 1375, 1765, 1766, 1792, 1791
1224, 1350, 1351, 1377, 1376, 1766, 1767, 1793, 1792
1225, 1351, 1352, 1378, 1377, 1767, 1768, 1794, 1793
1226, 1353, 1354, 1380, 1379, 1769, 1770, 1796, 1795
1227, 1354, 1355, 1381, 1380, 1770, 1771, 1797, 1796
1228, 1355, 1356, 1382, 1381, 1771, 1772, 1798, 1797
1229, 1356, 1357, 1383, 1382, 1772, 1773, 1799, 1798
1230, 1357, 1358, 1384, 1383, 1773, 1774, 1800, 1799
1231, 1358, 1359, 1385, 1384, 1774, 1775, 1801, 1800
1232, 1359, 1360, 1386, 1385, 1775, 1776, 1802, 1801
1233, 1360, 1361, 1387, 1386, 1776, 1777, 1803, 1802
1234, 1361, 1362, 1388, 1387, 1777, 1778, 1804, 1803
1235, 1362, 1363, 1389, 1388, 1778, 1779, 1805, 1804
1236, 1363, 1364, 1390, 1389, 1779, 1780, 1806, 1805
1237, 1364, 1365, 1391, 1390, 1780, 1781, 1807, 1806
1238, 1365, 1366, 1392, 1391, 1781, 1782, 1808, 1807
1239, 1366, 1367, 1393, 1392, 1782, 1783, 1809, 1808
1240, 1367, 1368, 1394, 1393, 1783, 1784, 1810, 1809
1241, 1368, 1369, 1395, 1394, 1784, 1785, 1811, 1810
1242, 1369, 1370, 1396, 1395, 1785, 1786, 1812, 1811
1243, 1370, 1371, 1397, 1396, 1786, 1787, 1813, 1812
1244, 1371, 1372, 1398, 1397, 1787, 1788, 1814, 1813
1245, 1372, 1373, 1399, 1398, 1788, 1789, 1815, 1814
1246, 1373, 1374, 1400, 1399, 1789, 1790, 1816, 1815
1247, 1374, 1375, 1401, 1400, 1790, 1791, 1817, 1816
1248, 1375, 1376, 1402, 1401, 1791, 1792, 1818, 1817
1249, 1376, 1377, 1403, 1402, 1792, 1793, 1819, 1818
1250, 1377, 1378, 1404, 1403, 1793, 1794, 1820, 1819
1251, 1379, 1380, 1406, 1405, 1795, 1796, 1822, 1821
1252, 1380, 1381, 1407, 1406, 1796, 1797, 1823, 1822
1253, 1381, 1382, 1408, 1407, 1797, 1798, 1824, 1823
1254, 1382, 1383, 1409, 1408, 1798, 1799, 1825, 1824
1255, 1383, 1384, 1410, 1409, 1799, 1800, 1826, 1825
1256, 1384, 1385, 1411, 1410, 1800, 1801, 1827, 1826
1257, 1385, 1386, 1412, 1411, 1801, 1802, 1828, 1827
1258, 1386, 1387, 1413, 1412, 1802, 1803, 1829, 1828
1259, 1387, 1388, 1414, 1413, 1803, 1804, 1830, 1829
1260, 1388, 1389, 1415, 1414, 1804, 1805, 1831, 1830
1261, 1389, 1390, 1416, 1415, 1805, 1806, 1832, 1831
1262, 1390, 1391, 1417, 1416, 1806, 1807, 1833, 1832
1263, 1391, 1392, 1418, 1417, 1807, 1808, 1834, 1833
1264, 1392, 1393, 1419, 1418, 1808, 1809, 1835, 1834
1265, 1393, 1394, 1420, 1419, 1809, 1810, 1836, 1835
1266, 1394, 1395, 1421, 1420, 1810, 1811, 1837, 1836
1267, 1395, 1396, 1422, 1421, 1811, 1812, 1838, 1837
1268, 1396, 1397, 1423, 1422, 1812, 1813, 1839, 1838
1269, 1397, 1398, 1424, 1423, 1813, 1814, 1840, 1839
1270, 1398, 1399, 1425, 1424, 1814, 1815, 1841, 1840
1271, 1399, 1400, 1426, 1425, 1815, 1816, 1842, 1841
1272, 1400, 1401, 1427, 1426, 1816, 1817, 1843, 1842
1273, 1401, 1402, 1428, 1427, 1817, 1818, 1844, 1843
1274, 1402, 1403, 1429, 1428, 1818, 1819, 1845, 1844
1275, 1403, 1404, 1430, 1429, 1819, 1820, 1846, 1845
1276, 1405, 1406, 1432, 1431, 1821, 1822, 1848, 1847
1277, 1406, 1407, 1433, 1432, 1822, 1823, 1849, 1848
1278, 1407, 1408, 1434, 1433, 1823, 1824, 1850, 1849
1279, 1408, 1409, 1435, 1434, 1824, 1825, 1851, 1850
1280, 1409, 1410, 1436, 1435, 1825, 1826, 1852, 1851
1281, 1410, 1411, 1437, 1436, 1826, 1827, 1853, 1852
1282, 1411, 1412, 1438, 1437, 1827, 1828, 1854, 1853
1283, 1412, 1413, 1439, 1438, 1828, 1829, 1855, 1854
1284, 1413, 1414, 1440, 1439, 1829, 1830, 1856, 1855
1285, 1414, 1415, 1441, 1440, 1830, 1831, 1857, 1856
1286, 1415, 1416, 1442, 1441, 1831, 1832, 1858, 1857
1287, 1416, 1417, 1443, 1442, 1832, 1833, 1859, 1858
1288, 1417, 1418, 1444, 1443, 1833, 1834, 1860, 1859
1289, 1418, 1419, 1445, 1444, 1834, 1835, 1861, 1860
1290, 1419, 1420, 1446, 1445, 1835, 1836, 1862, 1861
1291, 1420, 1421, 1447, 1446, 1836, 1837, 1863, 1862
1292, 1421, 1422, 1448, 1447, 1837, 1838, 1864, 1863
1293, 1422, 1423, 1449, 1448, 1838, 1839, 1865, 1864
1294, 1423, 1424, 1450, 1449, 1839, 1840, 1866, 1865
1295, 1424, 1425, 1451, 1450, 1840, 1841, 1867, 1866
1296, 1425, 1426, 1452, 1451, 1841, 1842, 1868, 1867
1297, 1426, 1427, 1453, 1452, 1842, 1843, 1869, 1868
1298, 1427, 1428, 1454, 1453, 1843, 1844, 1870, 1869
1299, 1428, 1429, 1455, 1454, 1844, 1845, 1871, 1870
1300, 1429, 1430, 1456, 1455, 1845, 1846, 1872, 1871
1301, 1431, 1432, 1458, 1457, 1847, 1848, 1874, 1873
1302, 1432, 1433, 1459, 1458, 1848, 1849, 1875, 1874
1303, 1433, 1434, 1460, 1459, 1849, 1850, 1876, 1875
1304, 1434, 1435, 1461, 1460, 1850, 1851, 1877, 1876
1305, 1435, 1436, 1462, 1461, 1851, 1852, 1878, 1877
1306, 1436, 1437, 1463, 1462, 1852, 1853, 1879, 1878
1307, 1437, 1438, 1464, 1463, 1853, 1854, 1880, 1879
1308, 1438, 1439, 1465, 1464, 1854, 1855, 1881, 1880
1309, 1439, 1440, 1466, 1465, 1855, 1856, 1882, 1881
1310, 1440, 1441, 1467, 1466, 1856, 1857, 1883, 1882
1311, 1441, 1442, 1468, 1467, 1857, 1858, 1884, 1883
1312, 1442, 1443, 1469, 1468, 1858, 1859, 1885, 1884
1313, 1443, 1444, 1470, 1469, 1859, 1860, 1886, 1885
1314, 1444, 1445, 1471, 1470, 1860, 1861, 1887, 1886
1315, 1445, 1446, 1472, 1471, 1861, 1862, 1888, 1887
1316, 1446, 1447, 1473, 1472, 1862, 1863, 1889, 1888
1317, 1447, 1448, 1474, 1473, 1863, 1864, 1890, 1889
1318, 1448, 1449, 1475, 1474, 1864, 1865, 1891, 1890
1319, 1449, 1450, 1476, 1475, 1865, 1866, 1892, 1891
1320, 1450, 1451, 1477, 1476, 1866, 1867, 1893, 1892
1321, 1451, 1452, 1478, 1477, 1867, 1868, 1894, 1893
1322, 1452, 1453, 1479, 1478, 1868, 1869, 1895, 1894
1323, 1453, 1454, 1480, 1479, 1869, 1870, 1896, 1895
1324, 1454, 1455, 1481, 1480, 1870, 1871, 1897, 1896
1325, 1455, 1456, 1482, 1481, 1871, 1872, 1898, 1897
1326, 1457, 1458, 1484, 1483, 1873, 1874, 1900, 1899
1327, 1458, 1459, 1485, 1484, 1874, 1875, 1901, 1900
1328, 1459, 1460, 1486, 1485, 1875, 1876, 1902, 1901
1329, 1460, 1461, 1487, 1486, 1876, 1877, 1903, 1902
1330, 1461, 1462, 1488, 1487, 1877, 1878, 1904, 1903
1331, 1462, 1463, 1489, 1488, 1878, 1879, 1905, 1904
1332, 1463, 1464, 1490, 1489, 1879, 1880, 1906, 1905
1333, 1464, 1465, 1491, 1490, 1880, 1881, 1907, 1906
1334, 1465, 1466, 1492, 1491, 1881, 1882, 1908, 1907
1335, 1466, 1467, 1493, 1492, 1882, 1883, 1909, 1908
1336, 1467, 1468, 1494, 1493, 1883, 1884, 1910, 1909
1337, 1468, 1469, 1495, 1494, 1884, 1885, 1911, 1910
1338, 1469, 1470, 1496, 1495, 1885, 1886, 1912, 1911
1339, 1470, 1471, 1497, 1496, 1886, 1887, 1913, 1912
1340, 1471, 1472, 1498, 1497, 1887, 1888, 1914, 1913
1341, 1472, 1473, 1499, 1498, 1888, 1889, 1915, 1914
1342, 1473, 1474, 1500, 1499, 1889, 1890, 1916, 1915
1343, 1474, 1475, 1501, 1500, 1890, 1891, 1917, 1916
1344, 1475, 1476, 1502, 1501, 1891, 1892, 1918, 1917
1345, 1476, 1477, 1503, 1502, 1892, 1893, 1919, 1918
1346, 1477, 1478, 1504, 1503, 1893, 1894, 1920, 1919
1347, 1478, 1479, 1505, 1504, 1894, 1895, 1921, 1920
1348, 1479, 1480, 1506, 1505, 1895, 1896, 1922, 1921
1349, 1480, 1481, 1507, 1506, 1896, 1897, 1923, 1922
1350, 1481, 1482, 1508, 1507, 1897, 1898, 1924, 1923
1351, 1483, 1484, 1510, 1509, 1899, 1900, 1926, 1925
1352, 1484, 1485, 1511, 1510, 1900, 1901, 1927, 1926
1353, 1485, 1486, 1512, 1511, 1901, 1902, 1928, 1927
1354, 1486, 1487, 1513, 1512, 1902, 1903, 1929, 1928
1355, 1487, 1488, 1514, 1513, 1903, 1904, 1930, 1929
1356, 1488, 1489, 1515, 1514, 1904, 1905, 1931, 1930
1357, 1489, 1490, 1516, 1515, 1905, 1906, 1932, 1931
1358, 1490, 1491, 1517, 1516, 1906, 1907, 1933, 1932
1359, 1491, 1492, 1518, 1517, 1907, 1908, 1934, 1933
1360, 1492, 1493, 1519, 1518, 1908, 1909, 1935, 1934
1361, 1493, 1494, 1520, 1519, 1909, 1910, 1936, 1935
1362, 1494, 1495, 1521, 1520, 1910, 1911, 1937, 1936
1363, 1495, 1496, 1522, 1521, 1911, 1912, 1938, 1937
1364, 1496, 1497, 1523, 1522, 1912, 1913, 1939, 1938
1365, 1497, 1498, 1524, 1523, 1913, 1914, 1940, 1939
1366, 1498, 1499, 1525, 1524, 1914, 1915, 1941, 1940
1367, 1499, 1500, 1526, 1525, 1915, 1916, 1942, 1941
1368, 1500, 1501, 1527, 1526, 1916, 1917, 1943, 1942
1369, 1501, 1502, 1528, 1527, 1917, 1918, 1944, 1943
1370, 1502, 1503, 1529, 1528, 1918, 1919, 1945, 1944
1371, 1503, 1504, 1530, 1529, 1919, 1920, 1946, 1945
1372, 1504, 1505, 1531, 1530, 1920, 1921, 1947, 1946
1373, 1505, 1506, 1532, 1531, 1921, 1922, 1948, 1947
1374, 1506, 1507, 1533, 1532, 1922, 1923, 1949, 1948
1375, 1507, 1508, 1534, 1533, 1923, 1924, 1950, 1949
1376, 1509, 1510, 1536, 1535, 1925, 1926, 1952, 1951
1377, 1510, 1511, 1537, 1536, 1926, 1927, 1953, 1952
1378, 1511, 1512, 1538, 1537, 1927, 1928, 1954, 1953
1379, 1512, 1513, 1539, 1538, 1928, 1929, 1955, 1954
1380, 1513, 1514, 1540, 1539, 1929, 1930, 1956, 1955
1381, 1514, 1515, 1541, 1540, 1930, 1931, 1957, 1956
1382, 1515, 1516, 1542, 1541, 1931, 1932, 1958, 1957
1383, 1516, 1517, 1543, 1542, 1932, 1933, 1959, 1958
1384, 1517, 1518, 1544, 1543, 1933, 1934, 1960, 1959
1385, 1518, 1519, 1545, 1544, 1934, 1935, 1961, 1960
1386, 1519, 1520, 1546, 1545, 1935, 1936, 1962, 1961
1387, 1520, 1521, 1547, 1546, 1936, 1937, 1963, 1962
1388, 1521, 1522, 1548, 1547, 1937, 1938, 1964, 1963
1389, 1522, 1523, 1549, 1548, 1938, 1939, 1965, 1964
1390, 1523, 1524, 1550, 1549, 1939, 1940, 1966, 1965
1391, 1524, 1525, 1551, 1550, 1940, 1941, 1967, 1966
1392, 1525, 1526, 1552, 1551, 1941, 1942, 1968, 1967
1393, 1526, 1527, 1553, 1552, 1942, 1943, 1969, 1968
1394, 1527, 1528, 1554, 1553, 1943, 1944, 1970, 1969
1395, 1528, 1529, 1555, 1554, 1944, 1945, 1971, 1970
1396, 1529, 1530, 1556, 1555, 1945, 1946, 1972, 1971
1397, 1530, 1531, 1557, 1556, 1946, 1947, 1973, 1972
1398, 1531, 1532, 1558, 1557, 1947, 1948, 1974, 1973
1399, 1532, 1533, 1559, 1558, 1948, 1949, 1975, 1974
1400, 1533, 1534, 1560, 1559, 1949, 1950, 1976, 1975
1401, 1535, 1536, 1562, 1561, 1951, 1952, 1978, 1977
1402, 1536, 1537, 1563, 1562, 1952, 1953, 1979, 1978
1403, 1537, 1538, 1564, 1563, 1953, 1954, 1980, 1979
1404, 1538, 1539, 1565, 1564, 1954, 1955, 1981, 1980
1405, 1539, 1540, 1566, 1565, 1955, 1956, 1982, 1981
1406, 1540, 1541, 1567, 1566, 1956, 1957, 1983, 1982
1407, 1541, 1542, 1568, 1567, 1957, 1958, 1984, 1983
1408, 1542, 1543, 1569, 1568, 1958, 1959, 1985, 1984
1409, 1543, 1544, 1570, 1569, 1959, 1960, 1986, 1985
1410, 1544, 1545, 1571, 1570, 1960, 1961, 1987, 1986
1411, 1545, 1546, 1572, 1571, 1961, 1962, 1988, 1987
1412, 1546, 1547, 1573, 1572, 1962, 1963, 1989, 1988
1413, 1547, 1548, 1574, 1573, 1963, 1964, 1990, 1989
1414, 1548, 1549, 1575, 1574, 1964, 1965, 1991, 1990
1415, 1549, 1550, 1576, 1575, 1965, 1966, 1992, 1991
1416, 1550, 1551, 1577, 1576, 1966, 1967, 1993, 1992
1417, 1551, 1552, 1578, 1577, 1967, 1968, 1994, 1993
1418, 1552, 1553, 1579, 1578, 1968, 1969, 1995, 1994
1419, 1553, 1554, 1580, 1579, 1969, 1970, 1996, 1995
1420, 1554, 1555, 1581, 1580, 1970, 1971, 1997, 1996
1421, 1555, 1556, 1582, 1581, 1971, 1972, 1998, 1997
1422, 1556, 1557, 1583, 1582, 1972, 1973, 1999, 1998
1423, 1557, 1558, 1584, 1583, 1973, 1974, 2000, 1999
1424, 1558, 1559, 1585, 1584, 1974, 1975, 2001, 2000
1425, 1559, 1560, 1586, 1585, 1975, 1976, 2002, 2001
1426, 1561, 1562, 1588, 1587, 1977, 1978, 2004, 2003
1427, 1562, 1563, 1589, 1588, 1978, 1979, 2005, 2004
1428, 1563, 1564, 1590, 1589, 1979, 1980, 2006, 2005
1429, 1564, 1565, 1591, 1590, 1980, 1981, 2007, 2006
1430, 1565, 1566, 1592, 1591, 1981, 1982, 2008, 2007
1431, 1566, 1567, 1593, 1592, 1982, 1983, 2009, 2008
1432, 1567, 1568, 1594, 1593, 1983, 1984, 2010, 2009
1433, 1568, 1569, 1595, 1594, 1984, 1985, 2011, 2010
1434, 1569, 1570, 1596, 1595, 1985, 1986, 2012, 2011
1435, 1570, 1571, 1597, 1596, 1986, 1987, 2013, 2012
1436, 1571, 1572, 1598, 1597, 1987, 1988, 2014, 2013
1437, 1572, 1573, 1599, 1598, 1988, 1989, 2015, 2014
1438, 1573, 1574, 1600, 1599, 1989, 1990, 2016, 2015
1439, 1574, 1575, 1601, 1600, 1990, 1991, 2017, 2016
1440, 1575, 1576, 1602, 1601, 1991, 1992, 2018, 2017
1441, 1576, 1577, 1603, 1602, 1992, 1993, 2019, 2018
1442, 1577, 1578, 1604, 1603, 1993, 1994, 2020, 2019
1443, 1578, 1579, 1605, 1604, 1994, 1995, 2021, 2020
1444, 1579, 1580, 1606, 1605, 1995, 1996, 2022, 2021
1445, 1580, 1581, 1607, 1606, 1996, 1997, 2023, 2022
1446, 1581, 1582, 1608, 1607, 1997, 1998, 2024, 2023
1447, 1582, 1583, 1609, 1608, 1998, 1999, 2025, 2024
1448, 1583, 1584, 1610, 1609, 1999, 2000, 2026, 2025
1449, 1584, 1585, 1611, 1610, 2000, 2001, 2027, 2026
1450, 1585, 1586, 1612, 1611, 2001, 2002, 2028, 2027
1451, 1587, 1588, 1614, 1613, 2003, 2004, 2030, 2029
1452, 1588, 1589, 1615, 1614, 2004, 2005, 2031, 2030
1453, 1589, 1590, 1616, 1615, 2005, 2006, 2032, 2031
1454, 1590, 1591, 1617, 1616, 2006, 2007, 2033, 2032
1455, 1591, 1592, 1618, 1617, 2007, 2008, 2034, 2033
1456, 1592, 1593, 1619, 1618, 2008, 2009, 2035, 2034
1457, 1593, 1594, 1620, 1619, 2009, 2010, 2036, 2035
1458, 1594, 1595, 1621, 1620, 2010, 2011, 2037, 2036
1459, 1595, 1596, 1622, 1621, 2011, 2012, 2038, 2037
1460, 1596, 1597, 1623, 1622, 2012, 2013, 2039, 2038
1461, 1597, 1598, 1624, 1623, 2013, 2014, 2040, 2039
1462, 1598, 1599, 1625, 1624, 2014, 2015, 2041, 2040
1463, 1599, 1600, 1626, 1625, 2015, 2016, 2042, 2041
1464, 1600, 1601, 1627, 1626, 2016, 2017, 2043, 2042
1465, 1601, 1602, 1628, 1627, 2017, 2018, 2044, 2043
1466, 1602, 1603, 1629, 1628, 2018, 2019, 2045, 2044
1467, 1603, 1604, 1630, 1629, 2019, 2020, 2046, 2045
1468, 1604, 1605, 1631, 1630, 2020, 2021, 2047, 2046
1469, 1605, 1606, 1632, 1631, 2021, 2022, 2048, 2047
1470, 1606, 1607, 1633, 1632, 2022, 2023, 2049, 2048
1471, 1607, 1608, 1634, 1633, 2023, 2024, 2050, 2049
1472, 1608, 1609, 1635, 1634, 2024, 2025, 2051, 2050
1473, 1609, 1610, 1636, 1635, 2025, 2026, 2052, 2051
1474, 1610, 1611, 1637, 1636, 2026, 2027, 2053, 2052
1475, 1611, 1612, 1638, 1637, 2027, 2028, 2054, 2053
1476, 1613, 1614, 1640, 1639, 2029, 2030, 2056, 2055
1477, 1614, 1615, 1641, 1640, 2030, 2031, 2057, 2056
1478, 1615, 1616, 1642, 1641, 2031, 2032, 2058, 2057
1479, 1616, 1617, 1643, 1642, 2032, 2033, 2059, 2058
1480, 1617, 1618, 1644, 1643, 2033, 2034, 2060, 2059
1481, 1618, 1619, 1645, 1644, 2034, 2035, 2061, 2060
1482, 1619, 1620, 1646, 1645, 2035, 2036, 2062, 2061
1483, 1620, 1621, 1647, 1646, 2036, 2037, 2063, 2062
1484, 1621, 1622, 1648, 1647, 2037, 2038, 2064, 2063
1485, 1622, 1623, 1649, 1648, 2038, 2039, 2065, 2064
1486, 1623, 1624, 1650, 1649, 2039, 2040, 2066, 2065
1487, 1624, 1625, 1651, 1650, 2040, 2041, 2067, 2066
1488, 1625, 1626, 1652, 1651, 2041, 2042, 2068, 2067
1489, 1626, 1627, 1653, 1652, 2042, 2043, 2069, 2068
1490, 1627, 1628, 1654, 1653, 2043, 2044, 2070, 2069
1491, 1628, 1629, 1655, 1654, 2044, 2045, 2071, 2070
1492, 1629, 1630, 1656, 1655, 2045, 2046, 2072, 2071
1493, 1630, 1631, 1657, 1656, 2046, 2047, 2073, 2072
1494, 1631, 1632, 1658, 1657, 2047, 2048, 2074, 2073
1495, 1632, 1633, 1659, 1658, 2048, 2049, 2075, 2074
1496, 1633, 1634, 1660, 1659, 2049, 2050, 2076, 2075
1497, 1634, 1635, 1661, 1660, 2050, 2051, 2077, 2076
1498, 1635, 1636, 1662, 1661, 2051, 2052, 2078, 2077
1499, 1636, 1637, 1663, 1662, 2052, 2053, 2079, 2078
1500, 1637, 1638, 1664, 1663, 2053, 2054, 2080, 2079
1501, 1665, 1666, 1692, 1691, 2081, 2082, 2108, 2107
1502, 1666, 1667, 1693, 1692, 2082, 2083, 2109, 2108
1503, 1667, 1668, 1694, 1693, 2083, 2084, 2110, 2109
1504, 1668, 1669, 1695, 1694, 2084, 2085, 2111, 2110
1505, 1669, 1670, 1696, 1695, 2085, 2086, 2112, 2111
1506, 1670, 1671, 1697, 1696, 2086, 2087, 2113, 2112
1507, 1671, 1672, 1698, 1697, 2087, 2088, 2114, 2113
1508, 1672, 1673, 1699, 1698, 2088, 2089, 2115, 2114
1509, 1673, 1674, 1700, 1699, 2089, 2090, 2116, 2115
1510, 1674, 1675, 1701, 1700, 2090, 2091, 2117, 2116
1511, 1675, 1676, 1702, 1701, 2091, 2092, 2118, 2117
1512, 1676, 1677, 1703, 1702, 2092, 2093, 2119, 2118
1513, 1677, 1678, 1704, 1703, 2093, 2094, 2120, 2119
1514, 1678, 1679, 1705, 1704, 2094, 2095, 2121, 2120
1515, 1679, 1680, 1706, 1705, 2095, 2096, 2122, 2121
1516, 1680, 1681, 1707, 1706, 2096, 2097, 2123, 2122
1517, 1681, 1682, 1708, 1707, 2097, 2098, 2124, 2123
1518, 1682, 1683, 1709, 1708, 2098, 2099, 2125, 2124
1519, 1683, 1684, 1710, 1709, 2099, 2100, 2126, 2125
1520, 1684, 1685, 1711, 1710, 2100, 2101, 2127, 2126
1521, 1685, 1686, 1712, 1711, 2101, 2102, 2128, 2127
1522, 1686, 1687, 1713, 1712, 2102, 2103, 2129, 2128
1523, 1687, 1688, 1714, 1713, 2103, 2104, 2130, 2129
1524, 1688, 1689, 1715, 1714, 2104, 2105, 2131, 2130
1525, 1689, 1690, 1716, 1715, 2105, 2106, 2132, 2131
1526, 1691, 1692, 1718, 1717, 2107, 2108, 2134, 2133
1527, 1692, 1693, 1719, 1718, 2108, 2109, 2135, 2134
1528, 1693, 1694, 1720, 1719, 2109, 2110, 2136, 2135
1529, 1694, 1695, 1721, 1720, 2110, 2111, 2137, 2136
1530, 1695, 1696, 1722, 1721, 2111, 2112, 2138, 2137
1531, 1696, 1697, 1723, 1722, 2112, 2113, 2139, 2138
1532, 1697, 1698, 1724, 1723, 2113, 2114, 2140, 2139
1533, 1698, 1699, 1725, 1724, 2114, 2115, 2141, 2140
1534, 1699, 1700, 1726, 1725, 2115, 2116, 2142, 2141
1535, 1700, 1701, 1727, 1726, 2116, 2117, 2143, 2142
1536, 1701, 1702, 1728, 1727, 2117, 2118, 2144, 2143
1537, 1702, 1703, 1729, 1728, 2118, 2119, 2145, 2144
1538, 1703, 1704, 1730, 1729, 2119, 2120, 2146, 2145
1539, 1704, 1705, 1731, 1730, 2120, 2121, 2147, 2146
1540, 1705, 1706, 1732, 1731, 2121, 2122, 2148, 2147
1541, 1706, 1707, 1733, 1732, 2122, 2123, 2149, 2148
1542, 1707, 1708, 1734, 1733, 2123, 2124, 2150, 2149
1543, 1708, 1709, 1735, 1734, 2124, 2125, 2151, 2150
1544, 1709, 1710, 1736, 1735, 2125, 2126, 2152, 2151
1545, 1710, 1711, 1737, 1736, 2126, 2127, 2153, 2152
1546, 1711, 1712, 1738, 1737, 2127, 2128, 2154, 2153
1547, 1712, 1713, 1739, 1738, 2128, 2129, 2155, 2154
1548, 1713, 1714, 1740, 1739, 2129, 2130, 2156, 2155
1549, 1714, 1715, 1741, 1740, 2130, 2131, 2157, 2156
1550, 1715, 1716, 1742, 1741, 2131, 2132, 2158, 2157
1551, 1717, 1718, 1744, 1743, 2133, 2134, 2160, 2159
1552, 1718, 1719, 1745, 1744, 2134, 2135, 2161, 2160
1553, 1719, 1720, 1746, 1745, 2135, 2136, 2162, 2161
1554, 1720, 1721, 1747, 1746, 2136, 2137, 2163, 2162
1555, 1721, 1722, 1748, 1747, 2137, 2138, 2164, 2163
1556, 1722, 1723, 1749, 1748, 2138, 2139, 2165, 2164
1557, 1723, 1724, 1750, 1749, 2139, 2140, 2166, 2165
1558, 1724, 1725, 1751, 1750, 2140, 2141, 2167, 2166
1559, 1725, 1726, 1752, 1751, 2141, 2142, 2168, 2167
1560, 1726, 1727, 1753, 1752, 2142, 2143, 2169, 2168
1561, 1727, 1728, 1754, 1753, 2143, 2144, 2170, 2169
1562, 1728, 1729, 1755, 1754, 2144, 2145, 2171, 2170
1563, 1729, 1730, 1756, 1755, 2145, 2146, 2172, 2171
1564, 1730, 1731, 1757, 1756, 2146, 2147, 2173, 2172
1565, 1731, 1732, 1758, 1757, 2147, 2148, 2174, 2173
1566, 1732, 1733, 1759, 1758, 2148, 2149, 2175, 2174
1567, 1733, 1734, 1760, 1759, 2149, 2150, 2176, 2175
1568, 1734, 1735, 1761, 1760, 2150, 2151, 2177, 2176
1569, 1735, 1736, 1762, 1761, 2151, 2152, 2178, 2177
1570, 1736, 1737, 1763, 1762, 2152, 2153, 2179, 2178
1571, 1737, 1738, 1764, 1763, 2153, 2154, 2180, 2179
1572, 1738, 1739, 1765, 1764, 2154, 2155, 2181, 2180
1573, 1739, 1740, 1766, 1765, 2155, 2156, 2182, 2181
1574, 1740, 1741, 1767, 1766, 2156, 2157, 2183, 2182
1575, 1741, 1742, 1768, 1767, 2157, 2158, 2184, 2183
1576, 1743, 1744, 1770, 1769, 2159, 2160, 2186, 2185
1577, 1744, 1745, 1771, 1770, 2160, 2161, 2187, 2186
1578, 1745, 1746, 1772, 1771, 2161, 2162, 2188, 2187
1579, 1746, 1747, 1773, 1772, 2162, 2163, 2189, 2188
1580, 1747, 1748, 1774, 1773, 2163, 2164, 2190, 2189
1581, 1748, 1749, 1775, 1774, 2164, 2165, 2191, 2190
1582, 1749, 1750, 1776, 1775, 2165, 2166, 2192, 2191
1583, 1750, 1751, 1777, 1776, 2166, 2167, 2193, 2192
1584, 1751, 1752, 1778, 1777, 2167, 2168, 2194, 2193
1585, 1752, 1753, 1779, 1778, 2168, 2169, 2195, 2194
1586, 1753, 1754, 1780, 1779, 2169, 2170, 2196, 2195
1587, 1754, 1755, 1781, 1780, 2170, 2171, 2197, 2196
1588, 1755, 1756, 1782, 1781, 2171, 2172, 2198, 2197
1589, 1756, 1757, 1783, 1782, 2172, 2173, 2199, 2198
1590, 1757, 1758, 1784, 1783, 2173, 2174, 2200, 2199
1591, 1758, 1759, 1785, 1784, 2174, 2175, 2201, 2200
1592, 1759, 1760, 1786, 1785, 2175, 2176, 2202, 2201
1593, 1760, 1761, 1787, 1786, 2176, 2177, 2203, 2202
1594, 1761, 1762, 1788, 1787, 2177, 2178, 2204, 2203
1595, 1762, 1763, 1789, 1788, 2178, 2179, 2205, 2204
1596, 1763, 1764, 1790, 1789, 2179, 2180, 2206, 2205
1597, 1764, 1765, 1791, 1790, 2180, 2181, 2207, 2206
1598, 1765, 1766, 1792, 1791, 2181, 2182, 2208, 2207
1599, 1766, 1767, 1793, 1792, 2182, 2183, 2209, 2208
1600, 1767, 1768, 1794, 1793, 2183, 2184, 2210, 2209
1601, 1769, 1770, 1796, 1795, 2185, 2186, 2212, 2211
1602, 1770, 1771, 1797, 1796, 2186, 2187, 2213, 2212
1603, 1771, 1772, 1798, 1797, 2187, 2188, 2214, 2213
1604, 1772, 1773, 1799, 1798, 2188, 2189, 2215, 2214
1605, 1773, 1774, 1800, 1799, 2189, 2190, 2216, 2215
1606, 1774, 1775, 1801, 1800, 2190, 2191, 2217, 2216
1607, 1775, 1776, 1802, 1801, 2191, 2192, 2218, 2217
1608, 1776, 1777, 1803, 1802, 2192, 2193, 2219, 2218
1609, 1777, 1778, 1804, 1803, 2193, 2194, 2220, 2219
1610, 1778, 1779, 1805, 1804, 2194, 2195, 2221, 2220
1611, 1779, 1780, 1806, 1805, 2195, 2196, 2222, 2221
1612, 1780, 1781, 1807, 1806, 2196, 2197, 2223, 2222
1613, 1781, 1782, 1808, 1807, 2197, 2198, 2224, 2223
1614, 1782, 1783, 1809, 1808, 2198, 2199, 2225, 2224
1615, 1783, 1784, 1810, 1809, 2199, 2200, 2226, 2225
1616, 1784, 1785, 1811, 1810, 2200, 2201, 2227, 2226
1617, 1785, 1786, 1812, 1811, 2201, 2202, 2228, 2227
1618, 1786, 1787, 1813, 1812, 2202, 2203, 2229, 2228
1619, 1787, 1788, 1814, 1813, 2203, 2204, 2230, 2229
1620, 1788, 1789, 1815, 1814, 2204, 2205, 2231, 2230
1621, 1789, 1790, 1816, 1815, 2205, 2206, 2232, 2231
1622, 1790, 1791, 1817, 1816, 2206, 2207, 2233, 2232
1623, 1791, 1792, 1818, 1817, 2207, 2208, 2234, 2233
1624, 1792, 1793, 1819, 1818, 2208, 2209, 2235, 2234
1625, 1793, 1794, 1820, 1819, 2209, 2210, 2236, 2235
1626, 1795, 1796, 1822, 1821, 2211, 2212, 2238, 2237
1627, 1796, 1797, 1823, 1822, 2212, 2213, 2239, 2238
1628, 1797, 1798, 1824, 1823, 2213, 2214, 2240, 2239
1629, 1798, 1799, 1825, 1824, 2214, 2215, 2241, 2240
1630, 1799, 1800, 1826, 1825, 2215, 2216, 2242, 2241
1631, 1800, 1801, 1827, 1826, 2216, 2217, 2243, 2242
1632, 1801, 1802, 1828, 1827, 2217, 2218, 2244, 2243
1633, 1802, 1803, 1829, 1828, 2218, 2219, 2245, 2244
1634, 1803, 1804, 1830, 1829, 2219, 2220, 2246, 2245
1635, 1804, 1805, 1831, 1830, 2220, 2221, 2247, 2246
1636, 1805, 1806, 1832, 1831, 2221, 2222, 2248, 2247
1637, 1806, 1807, 1833, 1832, 2222, 2223, 2249, 2248
1638, 1807, 1808, 1834, 1833, 2223, 2224, 2250, 2249
1639, 1808, 1809, 1835, 1834, 2224, 2225, 2251, 2250
1640, 1809, 1810, 1836, 1835, 2225, 2226, 2252, 2251
1641, 1810, 1811, 1837, 1836, 2226, 2227, 2253, 2252
1642, 1811, 1812, 1838, 1837, 2227, 2228, 2254, 2253
1643, 1812, 1813, 1839, 1838, 2228, 2229, 2255, 2254
1644, 1813, 1814, 1840, 1839, 2229, 2230, 2256, 2255
1645, 1814, 1815, 1841, 1840, 2230, 2231, 2257, 2256
1646, 1815, 1816, 1842, 1841, 2231, 2232, 2258, 2257
1647, 1816, 1817, 1843, 1842, 2232, 2233, 2259, 2258
1648, 1817, 1818, 1844, 1843, 2233, 2234, 2260, 2259
1649, 1818, 1819, 1845, 1844, 2234, 2235, 2261, 2260
1650, 1819, 1820, 1846, 1845, 2235, 2236, 2262, 2261
1651, 1821, 1822, 1848, 1847, 2237, 2238, 2264, 2263
1652, 1822, 1823, 1849, 1848, 2238, 2239, 2265, 2264
1653, 1823, 1824, 1850, 1849, 2239, 2240, 2266, 2265
1654, 1824, 1825, 1851, 1850, 2240, 2241, 2267, 2266
1655, 1825, 1826, 1852, 1851, 2241, 2242, 2268, 2267
1656, 1826, 1827, 1853, 1852, 2242, 2243, 2269, 2268
1657, 1827, 1828, 1854, 1853, 2243, 2244, 2270, 2269
1658, 1828, 1829, 1855, 1854, 2244, 2245, 2271, 2270
1659, 1829, 1830, 1856, 1855, 2245, 2246, 2272, 2271
1660, 1830, 1831, 1857, 1856, 2246, 2247, 2273, 2272
1661, 1831, 1832, 1858, 1857, 2247, 2248, 2274, 2273
1662, 1832, 1833, 1859, 1858, 2248, 2249, 2275, 2274
1663, 1833, 1834, 1860, 1859, 2249, 2250, 2276, 2275
1664, 1834, 1835, 1861, 1860, 2250, 2251, 2277, 2276
1665, 1835, 1836, 1862, 1861, 2251, 2252, 2278, 2277
1666, 1836, 1837, 1863, 1862, 2252, 2253, 2279, 2278
1667, 1837, 1838, 1864, 1863, 2253, 2254, 2280, 2279
1668, 1838, 1839, 1865, 1864, 2254, 2255, 2281, 2280
1669, 1839, 1840, 1866, 1865, 2255, 2256, 2282, 2281
1670, 1840, 1841, 1867, 1866, 2256, 2257, 2283, 2282
1671, 1841, 1842, 1868, 1867, 2257, 2258, 2284, 2283
1672, 1842, 1843, 1869, 1868, 2258, 2259, 2285, 2284
1673, 1843, 1844, 1870, 1869, 2259, 2260, 2286, 2285
1674, 1844, 1845, 1871, 1870, 2260, 2261, 2287, 2286
1675, 1845, 1846, 1872, 1871, 2261, 2262, 2288, 2287
1676, 1847, 1848, 1874, 1873, 2263, 2264, 2290, 2289
1677, 1848, 1849, 1875, 1874, 2264, 2265, 2291, 2290
1678, 1849, 1850, 1876, 1875, 2265, 2266, 2292, 2291
1679, 1850, 1851, 1877, 1876, 2266, 2267, 2293, 2292
1680, 1851, 1852, 1878, 1877, 2267, 2268, 2294, 2293
1681, 1852, 1853, 1879, 1878, 2268, 2269, 2295, 2294
1682, 1853, 1854, 1880, 1879, 2269, 2270, 2296, 2295
1683, 1854, 1855, 1881, 1880, 2270, 2271, 2297, 2296
1684, 1855, 1856, 1882, 1881, 2271, 2272, 2298, 2297
1685, 1856, 1857, 1883, 1882, 2272, 2273, 2299, 2298
1686, 1857, 1858, 1884, 1883, 2273, 2274, 2300, 2299
1687, 1858, 1859, 1885, 1884, 2274, 2275, 2301, 2300
1688, 1859, 1860, 1886, 1885, 2275, 2276, 2302, 2301
1689, 1860, 1861, 1887, 1886, 2276, 2277, 2303, 2302
1690, 1861, 1862, 1888, 1887, 2277, 2278, 2304, 2303
1691, 1862, 1863, 1889, 1888, 2278, 2279, 2305, 2304
1692, 1863, 1864, 1890, 1889, 2279, 2280, 2306, 2305
1693, 1864, 1865, 1891, 1890, 2280, 2281, 2307, 2306
1694, 1865, 1866, 1892, 1891, 2281, 2282, 2308, 2307
1695, 1866, 1867, 1893, 1892, 2282, 2283, 2309, 2308
1696, 1867, 1868, 1894, 1893, 2283, 2284, 2310, 2309
1697, 1868, 1869, 1895, 1894, 2284, 2285, 2311, 2310
1698, 1869, 1870, 1896, 1895, 2285, 2286, 2312, 2311
1699, 1870, 1871, 1897, 1896, 2286, 2287, 2313, 2312
1700, 1871, 1872, 1898, 1897, 2287, 2288, 2314, 2313
1701, 1873, 1874, 1900, 1899, 2289, 2290, 2316, 2315
1702, 1874, 1875, 1901, 1900, 2290, 2291, 2317, 2316
1703, 1875, 1876, 1902, 1901, 2291, 2292, 2318, 2317
1704, 1876, 1877, 1903, 1902, 2292, 2293, 2319, 2318
1705, 1877, 1878, 1904, 1903, 2293, 2294, 2320, 2319
1706, 1878, 1879, 1905, 1904, 2294, 2295, 2321, 2320
1707, 1879, 1880, 1906, 1905, 2295, 2296, 2322, 2321
1708, 1880, 1881, 1907, 1906, 2296, 2297, 2323, 2322
1709, 1881, 1882, 1908, 1907, 2297, 2298, 2324, 2323
1710, 1882, 1883, 1909, 1908, 2298, 2299, 2325, 2324
1711, 1883, 1884, 1910, 1909, 2299, 2300, 2326, 2325
1712, 1884, 1885, 1911, 1910, 2300, 2301, 2327, 2326
1713, 1885, 1886, 1912, 1911, 2301, 2302, 2328, 2327
1714, 1886, 1887, 1913, 1912, 2302, 2303, 2329, 2328
1715, 1887, 1888, 1914, 1913, 2303, 2304, 2330, 2329
1716, 1888, 1889, 1915, 1914, 2304, 2305, 2331, 2330
1717, 1889, 1890, 1916, 1915, 2305, 2306, 2332, 2331
1718, 1890, 1891, 1917, 1916, 2306, 2307, 2333, 2332
1719, 1891, 1892, 1918, 1917, 2307, 2308, 2334, 2333
1720, 1892, 1893, 1919, 1918, 2308, 2309, 2335, 2334
1721, 1893, 1894, 1920, 1919, 2309, 2310, 2336, 2335
1722, 1894, 1895, 1921, 1920, 2310, 2311, 2337, 2336
1723, 1895, 1896, 1922, 1921, 2311, 2312, 2338, 2337
1724, 1896, 1897, 1923, 1922, 2312, 2313, 2339, 2338
1725, 1897, 1898, 1924, 1923, 2313, 2314, 2340, 2339
1726, 1899, 1900, 1926, 1925, 2315, 2316, 2342, 2341
1727, 1900, 1901, 1927, 1926, 2316, 2317, 2343, 2342
1728, 1901, 1902, 1928, 1927, 2317, 2318, 2344, 2343
1729, 1902, 1903, 1929, 1928, 2318, 2319, 2345, 2344
1730, 1903, 1904, 1930, 1929, 2319, 2320, 2346, 2345
1731, 1904, 1905, 1931, 1930, 2320, 2321, 2347, 2346
1732, 1905, 1906, 1932, 1931, 2321, 2322, 2348, 2347
1733, 1906, 1907, 1933, 1932, 2322, 2323, 2349, 2348
1734, 1907, 1908, 1934, 1933, 2323, 2324, 2350, 2349
1735, 1908, 1909, 1935, 1934, 2324, 2325, 2351, 2350
1736, 1909, 1910, 1936, 1935, 2325, 2326, 2352, 2351
1737, 1910, 1911, 1937, 1936, 2326, 2327, 2353, 2352
1738, 1911, 1912, 1938, 1937, 2327, 2328, 2354, 2353
1739, 1912, 1913, 1939, 1938, 2328, 2329, 2355, 2354
1740, 1913, 1914, 1940, 1939, 2329, 2330, 2356, 2355
1741, 1914, 1915, 1941, 1940, 2330, 2331, 2357, 2356
1742, 1915, 1916, 1942, 1941, 2331, 2332, 2358, 2357
1743, 1916, 1917, 1943, 1942, 2332, 2333, 2359, 2358
1744, 1917, 1918, 1944, 1943, 2333, 2334, 2360, 2359
1745, 1918, 1919, 1945, 1944, 2334, 2335, 2361, 2360
1746, 1919, 1920, 1946, 1945, 2335, 2336, 2362, 2361
1747, 1920, 1921, 1947, 1946, 2336, 2337, 2363, 2362
1748, 1921, 1922, 1948, 1947, 2337, 2338, 2364, 2363
1749, 1922, 1923, 1949, 1948, 2338, 2339, 2365, 2364
1750, 1923, 1924, 1950, 1949, 2339, 2340, 2366, 2365
1751, 1925, 1926, 1952, 1951, 2341, 2342, 2368, 2367
1752, 1926, 1927, 1953, 1952, 2342, 2343, 2369, 2368
1753, 1927, 1928, 1954, 1953, 2343, 2344, 2370, 2369
1754, 1928, 1929, 1955, 1954, 2344, 2345, 2371, 2370
1755, 1929, 1930, 1956, 1955, 2345, 2346, 2372, 2371
1756, 1930, 1931, 1957, 1956, 2346, 2347, 2373, 2372
1757, 1931, 1932, 1958, 1957, 2347, 2348, 2374, 2373
1758, 1932, 1933, 1959, 1958, 2348, 2349, 2375, 2374
1759, 1933, 1934, 1960, 1959, 2349, 2350, 2376, 2375
1760, 1934, 1935, 1961, 1960, 2350, 2351, 2377, 2376
1761, 1935, 1936, 1962, 1961, 2351, 2352, 2378, 2377
1762, 1936, 1937, 1963, 1962, 2352, 2353, 2379, 2378
1763, 1937, 1938, 1964, 1963, 2353, 2354, 2380, 2379
1764, 1938, 1939, 1965, 1964, 2354, 2355, 2381, 2380
1765, 1939, 1940, 1966, 1965, 2355, 2356, 2382, 2381
1766, 1940, 1941, 1967, 1966, 2356, 2357, 2383, 2382
1767, 1941, 1942, 1968, 1967, 2357, 2358, 2384, 2383
1768, 1942, 1943, 1969, 1968, 2358, 2359, 2385, 2384
1769, 1943, 1944, 1970, 1969, 2359, 2360, 2386, 2385
1770, 1944, 1945, 1971, 1970, 2360, 2361, 2387, 2386
1771, 1945, 1946, 1972, 1971, 2361, 2362, 2388, 2387
1772, 1946, 1947, 1973, 1972, 2362, 2363, 2389, 2388
1773, 1947, 1948, 1974, 1973, 2363, 2364, 2390, 2389
1774, 1948, 1949, 1975, 1974, 2364, 2365, 2391, 2390
1775, 1949, 1950, 1976, 1975, 2365, 2366, 2392, 2391
1776, 1951, 1952, 1978, 1977, 2367, 2368, 2394, 2393
1777, 1952, 1953, 1979, 1978, 2368, 2369, 2395, 2394
1778, 1953, 1954, 1980, 1979, 2369, 2370, 2396, 2395
1779, 1954, 1955, 1981, 1980, 2370, 2371, 2397, 2396
1780, 1955, 1956, 1982, 1981, 2371, 2372, 2398, 2397
1781, 1956, 1957, 1983, 1982, 2372, 2373, 2399, 2398
1782, 1957, 1958, 1984, 1983, 2373, 2374, 2400, 2399
1783, 1958, 1959, 1985, 1984, 2374, 2375, 2401, 2400
1784, 1959, 1960, 1986, 1985, 2375, 2376, 2402, 2401
1785, 1960, 1961, 1987, 1986, 2376, 2377, 2403, 2402
1786, 1961, 1962, 1988, 1987, 2377, 2378, 2404, 2403
1787, 1962, 1963, 1989, 1988, 2378, 2379, 2405, 2404
1788, 1963, 1964, 1990, 1989, 2379, 2380, 2406, 2405
1789, 1964, 1965, 1991, 1990, 2380, 2381, 2407, 2406
1790, 1965, 1966, 1992, 1991, 2381, 2382, 2408, 2407
1791, 1966, 1967, 1993, 1992, 2382, 2383, 2409, 2408
1792, 1967, 1968, 1994, 1993, 2383, 2384, 2410, 2409
1793, 1968, 1969, 1995, 1994, 2384, 2385, 2411, 2410
1794, 1969, 1970, 1996, 1995, 2385, 2386, 2412, 2411
1795, 1970, 1971, 1997, 1996, 2386, 2387, 2413, 2412
1796, 1971, 1972, 1998, 1997, 2387, 2388, 2414, 2413
1797, 1972, 1973, 1999, 1998, 2388, 2389, 2415, 2414
1798, 1973, 1974, 2000, 1999, 2389, 2390, 2416, 2415
1799, 1974, 1975, 2001, 2000, 2390, 2391, 2417, 2416
1800, 1975, 1976, 2002, 2001, 2391, 2392, 2418, 2417
1801, 1977, 1978, 2004, 2003, 2393, 2394, 2420, 2419
1802, 1978, 1979, 2005, 2004, 2394, 2395, 2421, 2420
1803, 1979, 1980, 2006, 2005, 2395, 2396, 2422, 2421
1804, 1980, 1981, 2007, 2006, 2396, 2397, 2423, 2422
1805, 1981, 1982, 2008, 2007, 2397, 2398, 2424, 2423
1806, 1982, 1983, 2009, 2008, 2398, 2399, 2425, 2424
1807, 1983, 1984, 2010, 2009, 2399, 2400, 2426, 2425
1808, 1984, 1985, 2011, 2010, 2400, 2401, 2427, 2426
1809, 1985, 1986, 2012, 2011, 2401, 2402, 2428, 2427
1810, 1986, 1987, 2013, 2012, 2402, 2403, 2429, 2428
1811, 1987, 1988, 2014, 2013, 2403, 2404, 2430, 2429
1812, 1988, 1989, 2015, 2014, 2404, 2405, 2431, 2430
1813, 1989, 1990, 2016, 2015, 2405, 2406, 2432, 2431
1814, 1990, 1991, 2017, 2016, 2406, 2407, 2433, 2432
1815, 1991, 1992, 2018, 2017, 2407, 2408, 2434, 2433
1816, 1992, 1993, 2019, 2018, 2408, 2409, 2435, 2434
1817, 1993, 1994, 2020, 2019, 2409, 2410, 2436, 2435
1818, 1994, 1995, 2021, 2020, 2410, 2411, 2437, 2436
1819, 1995, 1996, 2022, 2021, 2411, 2412, 2438, 2437
1820, 1996, 1997, 2023, 2022, 2412, 2413, 2439, 2438
1821, 1997, 1998, 2024, 2023, 2413, 2414, 2440, 2439
1822, 1998, 1999, 2025, 2024, 2414, 2415, 2441, 2440
1823, 1999, 2000, 2026, 2025, 2415, 2416, 2442, 2441
1824, 2000, 2001, 2027, 2026, 2416, 2417, 2443, 2442
1825, 2001, 2002, 2028, 2027, 2417, 2418, 2444, 2443
1826, 2003, 2004, 2030, 2029, 2419, 2420, 2446, 2445
1827, 2004, 2005, 2031, 2030, 2420, 2421, 2447, 2446
1828, 2005, 2006, 2032, 2031, 2421, 2422, 2448, 2447
1829, 2006, 2007, 2033, 2032, 2422, 2423, 2449, 2448
1830, 2007, 2008, 2034, 2033, 2423, 2424, 2450, 2449
1831, 2008, 2009, 2035, 2034, 2424, 2425, 2451, 2450
1832, 2009, 2010, 2036, 2035, 2425, 2426, 2452, 2451
1833, 2010, 2011, 2037, 2036, 2426, 2427, 2453, 2452
1834, 2011, 2012, 2038, 2037, 2427, 2428, 2454, 2453
1835, 2012, 2013, 2039, 2038, 2428, 2429, 2455, 2454
1836, 2013, 2014, 2040, 2039, 2429, 2430, 2456, 2455
1837, 2014, 2015, 2041, 2040, 2430, 2431, 2457, 2456
1838, 2015, 2016, 2042, 2041, 2431, 2432, 2458, 2457
1839, 2016, 2017, 2043, 2042, 2432, 2433, 2459, 2458
1840, 2017, 2018, 2044, 2043, 2433, 2434, 2460, 2459
1841, 2018, 2019, 2045, 2044, 2434, 2435, 2461, 2460
1842, 2019, 2020, 2046, 2045, 2435, 2436, 2462, 2461
1843, 2020, 2021, 2047, 2046, 2436, 2437, 2463, 2462
1844, 2021, 2022, 2048, 2047, 2437, 2438, 2464, 2463
1845, 2022, 2023, 2049, 2048, 2438, 2439, 2465, 2464
1846, 2023, 2024, 2050, 2049, 2439, 2440, 2466, 2465
1847, 2024, 2025, 2051, 2050, 2440, 2441, 2467, 2466
1848, 2025, 2026, 2052, 2051, 2441, 2442, 2468, 2467
1849, 2026, 2027, 2053, 2052, 2442, 2443, 2469, 2468
1850, 2027, 2028, 2054, 2053, 2443, 2444, 2470, 2469
1851, 2029, 2030, 2056, 2055, 2445, 2446, 2472, 2471
1852, 2030, 2031, 2057, 2056, 2446, 2447, 2473, 2472
1853, 2031, 2032, 2058, 2057, 2447, 2448, 2474, 2473
1854, 2032, 2033, 2059, 2058, 2448, 2449, 2475, 2474
1855, 2033, 2034, 2060, 2059, 2449, 2450, 2476, 2475
1856, 2034, 2035, 2061, 2060, 2450, 2451, 2477, 2476
1857, 2035, 2036, 2062, 2061, 2451, 2452, 2478, 2477
1858, 2036, 2037, 2063, 2062, 2452, 2453, 2479, 2478
1859, 2037, 2038, 2064, 2063, 2453, 2454, 2480, 2479
1860, 2038, 2039, 2065, 2064, 2454, 2455, 2481, 2480
1861, 2039, 2040, 2066, 2065, 2455, 2456, 2482, 2481
1862, 2040, 2041, 2067, 2066, 2456, 2457, 2483, 2482
1863, 2041, 2042, 2068, 2067, 2457, 2458, 2484, 2483
1864, 2042, 2043, 2069, 2068, 2458, 2459, 2485, 2484
1865, 2043, 2044, 2070, 2069, 2459, 2460, 2486, 2485
1866, 2044, 2045, 2071, 2070, 2460, 2461, 2487, 2486
1867, 2045, 2046, 2072, 2071, 2461, 2462, 2488, 2487
1868, 2046, 2047, 2073, 2072, 2462, 2463, 2489, 2488
1869, 2047, 2048, 2074, 2073, 2463, 2464, 2490, 2489
1870, 2048, 2049, 2075, 2074, 2464, 2465, 2491, 2490
1871, 2049, 2050, 2076, 2075, 2465, 2466, 2492, 2491
1872, 2050, 2051, 2077, 2076, 2466, 2467, 2493, 2492
1873, 2051, 2052, 2078, 2077, 2467, 2468, 2494, 2493
1874, 2052, 2053, 2079, 2078, 2468, 2469, 2495, 2494
1875, 2053, 2054, 2080, 2079, 2469, 2470, 2496, 2495
1876, 2081, 2082, 2108, 2107, 2497, 2498, 2524, 2523
1877, 2082, 2083, 2109, 2108, 2498, 2499, 2525, 2524
1878, 2083, 2084, 2110, 2109, 2499, 2500, 2526, 2525
1879, 2084, 2085, 2111, 2110, 2500, 2501, 2527, 2526
1880, 2085, 2086, 2112, 2111, 2501, 2502, 2528, 2527
1881, 2086, 2087, 2113, 2112, 2502, 2503, 2529, 2528
1882, 2087, 2088, 2114, 2113, 2503, 2504, 2530, 2529
1883, 2088, 2089, 2115, 2114, 2504, 2505, 2531, 2530
1884, 2089, 2090, 2116, 2115, 2505, 2506, 2532, 2531
1885, 2090, 2091, 2117, 2116, 2506, 2507, 2533, 2532
1886, 2091, 2092, 2118, 2117, 2507, 2508, 2534, 2533
1887, 2092, 2093, 2119, 2118, 2508, 2509, 2535, 2534
1888, 2093, 2094, 2120, 2119, 2509, 2510, 2536, 2535
1889, 2094, 2095, 2121, 2120, 2510, 2511, 2537, 2536
1890, 2095, 2096, 2122, 2121, 2511, 2512, 2538, 2537
1891, 2096, 2097, 2123, 2122, 2512, 2513, 2539, 2538
1892, 2097, 2098, 2124, 2123, 2513, 2514, 2540, 2539
1893, 2098, 2099, 2125, 2124, 2514, 2515, 2541, 2540
1894, 2099, 2100, 2126, 2125, 2515, 2516, 2542, 2541
1895, 2100, 2101, 2127, 2126, 2516, 2517, 2543, 2542
1896, 2101, 2102, 2128, 2127, 2517, 2518, 2544, 2543
1897, 2102, 2103, 2129, 2128, 2518, 2519, 2545, 2544
1898, 2103, 2104, 2130, 2129, 2519, 2520, 2546, 2545
1899, 2104, 2105, 2131, 2130, 2520, 2521, 2547, 2546
1900, 2105, 2106, 2132, 2131, 2521, 2522, 2548, 2547
1901, 2107, 2108, 2134, 2133, 2523, 2524, 2550, 2549
1902, 2108, 2109, 2135, 2134, 2524, 2525, 2551, 2550
1903, 2109, 2110, 2136, 2135, 2525, 2526, 2552, 2551
1904, 2110, 2111, 2137, 2136, 2526, 2527, 2553, 2552
1905, 2111, 2112, 2138, 2137, 2527, 2528, 2554, 2553
1906, 2112, 2113, 2139, 2138, 2528, 2529, 2555, 2554
1907, 2113, 2114, 2140, 2139, 2529, 2530, 2556, 2555
1908, 2114, 2115, 2141, 2140, 2530, 2531, 2557, 2556
1909, 2115, 2116, 2142, 2141, 2531, 2532, 2558, 2557
1910, 2116, 2117, 2143, 2142, 2532, 2533, 2559, 2558
1911, 2117, 2118, 2144, 2143, 2533, 2534, 2560, 2559
1912, 2118, 2119, 2145, 2144, 2534, 2535, 2561, 2560
1913, 2119, 2120, 2146, 2145, 2535, 2536, 2562, 2561
1914, 2120, 2121, 2147, 2146, 2536, 2537, 2563, 2562
1915, 2121, 2122, 2148, 2147, 2537, 2538, 2564, 2563
1916, 2122, 2123, 2149, 2148, 2538, 2539, 2565, 2564
1917, 2123, 2124, 2150, 2149, 2539, 2540, 2566, 2565
1918, 2124, 2125, 2151, 2150, 2540, 2541, 2567, 2566
1919, 2125, 2126, 2152, 2151, 2541, 2542, 2568, 2567
1920, 2126, 2127, 2153, 2152, 2542, 2543, 2569, 2568
1921, 2127, 2128, 2154, 2153, 2543, 2544, 2570, 2569
1922, 2128, 2129, 2155, 2154, 2544, 2545, 2571, 2570
1923, 2129, 2130, 2156, 2155, 2545, 2546, 2572, 2571
1924, 2130, 2131, 2157, 2156, 2546, 2547, 2573, 2572
1925, 2131, 2132, 2158, 2157, 2547, 2548, 2574, 2573
1926, 2133, 2134, 2160, 2159, 2549, 2550, 2576, 2575
1927, 2134, 2135, 2161, 2160, 2550, 2551, 2577, 2576
1928, 2135, 2136, 2162, 2161, 2551, 2552, 2578, 2577
1929, 2136, 2137, 2163, 2162, 2552, 2553, 2579, 2578
1930, 2137, 2138, 2164, 2163, 2553, 2554, 2580, 2579
1931, 2138, 2139, 2165, 2164, 2554, 2555, 2581, 2580
1932, 2139, 2140, 2166, 2165, 2555, 2556, 2582, 2581
1933, 2140, 2141, 2167, 2166, 2556, 2557, 2583, 2582
1934, 2141, 2142, 2168, 2167, 2557, 2558, 2584, 2583
1935, 2142, 2143, 2169, 2168, 2558, 2559, 2585, 2584
1936, 2143, 2144, 2170, 2169, 2559, 2560, 2586, 2585
1937, 2144, 2145, 2171, 2170, 2560, 2561, 2587, 2586
1938, 2145, 2146, 2172, 2171, 2561, 2562, 2588, 2587
1939, 2146, 2147, 2173, 2172, 2562, 2563, 2589, 2588
1940, 2147, 2148, 2174, 2173, 2563, 2564, 2590, 2589
1941, 2148, 2149, 2175, 2174, 2564, 2565, 2591, 2590
1942, 2149, 2150, 2176, 2175, 2565, 2566, 2592, 2591
1943, 2150, 2151, 2177, 2176, 2566, 2567, 2593, 2592
1944, 2151, 2152, 2178, 2177, 2567, 2568, 2594, 2593
1945, 2152, 2153, 2179, 2178, 2568, 2569, 2595, 2594
1946, 2153, 2154, 2180, 2179, 2569, 2570, 2596, 2595
1947, 2154, 2155, 2181, 2180, 2570, 2571, 2597, 2596
1948, 2155, 2156, 2182, 2181, 2571, 2572, 2598, 2597
1949, 2156, 2157, 2183, 2182, 2572, 2573, 2599, 2598
1950, 2157, 2158, 2184, 2183, 2573, 2574, 2600, 2599
1951, 2159, 2160, 2186, 2185, 2575, 2576, 2602, 2601
1952, 2160, 2161, 2187, 2186, 2576, 2577, 2603, 2602
1953, 2161, 2162, 2188, 2187, 2577, 2578, 2604, 2603
1954, 2162, 2163, 2189, 2188, 2578, 2579, 2605, 2604
1955, 2163, 2164, 2190, 2189, 2579, 2580, 2606, 2605
1956, 2164, 2165, 2191, 2190, 2580, 2581, 2607, 2606
1957, 2165, 2166, 2192, 2191, 2581, 2582, 2608, 2607
1958, 2166, 2167, 2193, 2192, 2582, 2583, 2609, 2608
1959, 2167, 2168, 2194, 2193, 2583, 2584, 2610, 2609
1960, 2168, 2169, 2195, 2194, 2584, 2585, 2611, 2610
1961, 2169, 2170, 2196, 2195, 2585, 2586, 2612, 2611
1962, 2170, 2171, 2197, 2196, 2586, 2587, 2613, 2612
1963, 2171, 2172, 2198, 2197, 2587, 2588, 2614, 2613
1964, 2172, 2173, 2199, 2198, 2588, 2589, 2615, 2614
1965, 2173, 2174, 2200, 2199, 2589, 2590, 2616, 2615
1966, 2174, 2175, 2201, 2200, 2590, 2591, 2617, 2616
1967, 2175, 2176, 2202, 2201, 2591, 2592, 2618, 2617
1968, 2176, 2177, 2203, 2202, 2592, 2593, 2619, 2618
1969, 2177, 2178, 2204, 2203, 2593, 2594, 2620, 2619
1970, 2178, 2179, 2205, 2204, 2594, 2595, 2621, 2620
1971, 2179, 2180, 2206, 2205, 2595, 2596, 2622, 2621
1972, 2180, 2181, 2207, 2206, 2596, 2597, 2623, 2622
1973, 2181, 2182, 2208, 2207, 2597, 2598, 2624, 2623
1974, 2182, 2183, 2209, 2208, 2598, 2599, 2625, 2624
1975, 2183, 2184, 2210, 2209, 2599, 2600, 2626, 2625
1976, 2185, 2186, 2212, 2211, 2601, 2602, 2628, 2627
1977, 2186, 2187, 2213, 2212, 2602, 2603, 2629, 2628
1978, 2187, 2188, 2214, 2213, 2603, 2604, 2630, 2629
1979, 2188, 2189, 2215, 2214, 2604, 2605, 2631, 2630
1980, 2189, 2190, 2216, 2215, 2605, 2606, 2632, 2631
1981, 2190, 2191, 2217, 2216, 2606, 2607, 2633, 2632
1982, 2191, 2192, 2218, 2217, 2607, 2608, 2634, 2633
1983, 2192, 2193, 2219, 2218, 2608, 2609, 2635, 2634
1984, 2193, 2194, 2220, 2219, 2609, 2610, 2636, 2635
1985, 2194, 2195, 2221, 2220, 2610, 2611, 2637, 2636
1986, 2195, 2196, 2222, 2221, 2611, 2612, 2638, 2637
1987, 2196, 2197, 2223, 2222, 2612, 2613, 2639, 2638
1988, 2197, 2198, 2224, 2223, 2613, 2614, 2640, 2639
1989, 2198, 2199, 2225, 2224, 2614, 2615, 2641, 2640
1990, 2199, 2200, 2226, 2225, 2615, 2616, 2642, 2641
1991, 2200, 2201, 2227, 2226, 2616, 2617, 2643, 2642
1992, 2201, 2202, 2228, 2227, 2617, 2618, 2644, 2643
1993, 2202, 2203, 2229, 2228, 2618, 2619, 2645, 2644
1994, 2203, 2204, 2230, 2229, 2619, 2620, 2646, 2645
1995, 2204, 2205, 2231, 2230, 2620, 2621, 2647, 2646
1996, 2205, 2206, 2232, 2231, 2621, 2622, 2648, 2647
1997, 2206, 2207, 2233, 2232, 2622, 2623, 2649, 2648
1998, 2207, 2208, 2234, 2233, 2623, 2624, 2650, 2649
1999, 2208, 2209, 2235, 2234, 2624, 2625, 2651, 2650
2000, 2209, 2210, 2236, 2235, 2625, 2626, 2652, 2651
2001, 2211, 2212, 2238, 2237, 2627, 2628, 2654, 2653
2002, 2212, 2213, 2239, 2238, 2628, 2629, 2655, 2654
2003, 2213, 2214, 2240, 2239, 2629, 2630, 2656, 2655
2004, 2214, 2215, 2241, 2240, 2630, 2631, 2657, 2656
2005, 2215, 2216, 2242, 2241, 2631, 2632, 2658, 2657
2006, 2216, 2217, 2243, 2242, 2632, 2633, 2659, 2658
2007, 2217, 2218, 2244, 2243, 2633, 2634, 2660, 2659
2008, 2218, 2219, 2245, 2244, 2634, 2635, 2661, 2660
2009, 2219, 2220, 2246, 2245, 2635, 2636, 2662, 2661
2010, 2220, 2221, 2247, 2246, 2636, 2637, 2663, 2662
2011, 2221, 2222, 2248, 2247, 2637, 2638, 2664, 2663
2012, 2222, 2223, 2249, 2248, 2638, 2639, 2665, 2664
2013, 2223, 2224, 2250, 2249, 2639, 2640, 2666, 2665
2014, 2224, 2225, 2251, 2250, 2640, 2641, 2667, 2666
2015, 2225, 2226, 2252, 2251, 2641, 2642, 2668, 2667
2016, 2226, 2227, 2253, 2252, 2642, 2643, 2669, 2668
2017, 2227, 2228, 2254, 2253, 2643, 2644, 2670, 2669
2018, 2228, 2229, 2255, 2254, 2644, 2645, 2671, 2670
2019, 2229, 2230, 2256, 2255, 2645, 2646, 2672, 2671
2020, 2230, 2231, 2257, 2256, 2646, 2647, 2673, 2672
2021, 2231, 2232, 2258, 2257, 2647, 2648, 2674, 2673
2022, 2232, 2233, 2259, 2258, 2648, 2649, 2675, 2674
2023, 2233, 2234, 2260, 2259, 2649, 2650, 2676, 2675
2024, 2234, 2235, 2261, 2260, 2650, 2651, 2677, 2676
2025, 2235, 2236, 2262, 2261, 2651, 2652, 2678, 2677
2026, 2237, 2238, 2264, 2263, 2653, 2654, 2680, 2679
2027, 2238, 2239, 2265, 2264, 2654, 2655, 2681, 2680
2028, 2239, 2240, 2266, 2265, 2655, 2656, 2682, 2681
2029, 2240, 2241, 2267, 2266, 2656, 2657, 2683, 2682
2030, 2241, 2242, 2268, 2267, 2657, 2658, 2684, 2683
2031, 2242, 2243, 2269, 2268, 2658, 2659, 2685, 2684
2032, 2243, 2244, 2270, 2269, 2659, 2660, 2686, 2685
2033, 2244, 2245, 2271, 2270, 2660, 2661, 2687, 2686
2034, 2245, 2246, 2272, 2271, 2661, 2662, 2688, 2687
2035, 2246, 2247, 2273, 2272, 2662, 2663, 2689, 2688
2036, 2247, 2248, 2274, 2273, 2663, 2664, 2690, 2689
2037, 2248, 2249, 2275, 2274, 2664, 2665, 2691, 2690
2038, 2249, 2250, 2276, 2275, 2665, 2666, 2692, 2691
2039, 2250, 2251, 2277, 2276, 2666, 2667, 2693, 2692
2040, 2251, 2252, 2278, 2277, 2667, 2668, 2694, 2693
2041, 2252, 2253, 2279, 2278, 2668, 2669, 2695, 2694
2042, 2253, 2254, 2280, 2279, 2669, 2670, 2696, 2695
2043, 2254, 2255, 2281, 2280, 2670, 2671, 2697, 2696
2044, 2255, 2256, 2282, 2281, 2671, 2672, 2698, 2697
2045, 2256, 2257, 2283, 2282, 2672, 2673, 2699, 2698
2046, 2257, 2258, 2284, 2283, 2673, 2674, 2700, 2699
2047, 2258, 2259, 2285, 2284, 2674, 2675, 2701, 2700
2048, 2259, 2260, 2286, 2285, 2675, 2676, 2702, 2701
2049, 2260, 2261, 2287, 2286, 2676, 2677, 2703, 2702
2050, 2261, 2262, 2288, 2287, 2677, 2678, 2704, 2703
2051, 2263, 2264, 2290, 2289, 2679, 2680, 2706, 2705
2052, 2264, 2265, 2291, 2290, 2680, 2681, 2707, 2706
2053, 2265, 2266, 2292, 2291, 2681, 2682, 2708, 2707
2054, 2266, 2267, 2293, 2292, 2682, 2683, 2709, 2708
2055, 2267, 2268, 2294, 2293, 2683, 2684, 2710, 2709
2056, 2268, 2269, 2295, 2294, 2684, 2685, 2711, 2710
2057, 2269, 2270, 2296, 2295, 2685, 2686, 2712, 2711
2058, 2270, 2271, 2297, 2296, 2686, 2687, 2713, 2712
2059, 2271, 2272, 2298, 2297, 2687, 2688, 2714, 2713
2060, 2272, 2273, 2299, 2298, 2688, 2689, 2715, 2714
2061, 2273, 2274, 2300, 2299, 2689, 2690, 2716, 2715
2062, 2274, 2275, 2301, 2300, 2690, 2691, 2717, 2716
2063, 2275, 2276, 2302, 2301, 2691, 2692, 2718, 2717
2064, 2276, 2277, 2303, 2302, 2692, 2693, 2719, 2718
2065, 2277, 2278, 2304, 2303, 2693, 2694, 2720, 2719
2066, 2278, 2279, 2305, 2304, 2694, 2695, 2721, 2720
2067, 2279, 2280, 2306, 2305, 2695, 2696, 2722, 2721
2068, 2280, 2281, 2307, 2306, 2696, 2697, 2723, 2722
2069, 2281, 2282, 2308, 2307, 2697, 2698, 2724, 2723
2070, 2282, 2283, 2309, 2308, 2698, 2699, 2725, 2724
2071, 2283, 2284, 2310, 2309, 2699, 2700, 2726, 2725
2072, 2284, 2285, 2311, 2310, 2700, 2701, 2727, 2726
2073, 2285, 2286, 2312, 2311, 2701, 2702, 2728, 2727
2074, 2286, 2287, 2313, 2312, 2702, 2703, 2729, 2728
2075, 2287, 2288, 2314, 2313, 2703, 2704, 2730, 2729
2076, 2289, 2290, 2316, 2315, 2705, 2706, 2732, 2731
2077, 2290, 2291, 2317, 2316, 2706, 2707, 2733, 2732
2078, 2291, 2292, 2318, 2317, 2707, 2708, 2734, 2733
2079, 2292, 2293, 2319, 2318, 2708, 2709, 2735, 2734
2080, 2293, 2294, 2320, 2319, 2709, 2710, 2736, 2735
2081, 2294, 2295, 2321, 2320, 2710, 2711, 2737, 2736
2082, 2295, 2296, 2322, 2321, 2711, 2712, 2738, 2737
2083, 2296, 2297, 2323, 2322, 2712, 2713, 2739, 2738
2084, 2297, 2298, 2324, 2323, 2713, 2714, 2740, 2739
2085, 2298, 2299, 2325, 2324, 2714, 2715, 2741, 2740
2086, 2299, 2300, 2326, 2325, 2715, 2716, 2742, 2741
2087, 2300, 2301, 2327, 2326, 2716, 2717, 2743, 2742
2088, 2301, 2302, 2328, 2327, 2717, 2718, 2744, 2743
2089, 2302, 2303, 2329, 2328, 2718, 2719, 2745, 2744
2090, 2303, 2304, 2330, 2329, 2719, 2720, 2746, 2745
2091, 2304, 2305, 2331, 2330, 2720, 2721, 2747, 2746
2092, 2305, 2306, 2332, 2331, 2721, 2722, 2748, 2747
2093, 2306, 2307, 2333, 2332, 2722, 2723, 2749, 2748
2094, 2307, 2308, 2334, 2333, 2723, 2724, 2750, 2749
2095, 2308, 2309, 2335, 2334, 2724, 2725, 2751, 2750
2096, 2309, 2310, 2336, 2335, 2725, 2726, 2752, 2751
2097, 2310, 2311, 2337, 2336, 2726, 2727, 2753, 2752
2098, 2311, 2312, 2338, 2337, 2727, 2728, 2754, 2753
2099, 2312, 2313, 2339, 2338, 2728, 2729, 2755, 2754
2100, 2313, 2314, 2340, 2339, 2729, 2730, 2756, 2755
2101, 2315, 2316, 2342, 2341, 2731, 2732, 2758, 2757
2102, 2316, 2317, 2343, 2342, 2732, 2733, 2759, 2758
2103, 2317, 2318, 2344, 2343, 2733, 2734, 2760, 2759
2104, 2318, 2319, 2345, 2344, 2734, 2735, 2761, 2760
2105, 2319, 2320, 2346, 2345, 2735, 2736, 2762, 2761
2106, 2320, 2321, 2347, 2346, 2736, 2737, 2763, 2762
2107, 2321, 2322, 2348, 2347, 2737, 2738, 2764, 2763
2108, 2322, 2323, 2349, 2348, 2738, 2739, 2765, 2764
2109, 2323, 2324, 2350, 2349, 2739, 2740, 2766, 2765
2110, 2324, 2325, 2351, 2350, 2740, 2741, 2767, 2766
2111, 2325, 2326, 2352, 2351, 2741, 2742, 2768, 2767
2112, 2326, 2327, 2353, 2352, 2742, 2743, 2769, 2768
2113, 2327, 2328, 2354, 2353, 2743, 2744, 2770, 2769
2114, 2328, 2329, 2355, 2354, 2744, 2745, 2771, 2770
2115, 2329, 2330, 2356, 2355, 2745, 2746, 2772, 2771
2116, 2330, 2331, 2357, 2356, 2746, 2747, 2773, 2772
2117, 2331, 2332, 2358, 2357, 2747, 2748, 2774, 2773
2118, 2332, 2333, 2359, 2358, 2748, 2749, 2775, 2774
2119, 2333, 2334, 2360, 2359, 2749, 2750, 2776, 2775
2120, 2334, 2335, 2361, 2360, 2750, 2751, 2777, 2776
2121, 2335, 2336, 2362, 2361, 2751, 2752, 2778, 2777
2122, 2336, 2337, 2363, 2362, 2752, 2753, 2779, 2778
2123, 2337, 2338, 2364, 2363, 2753, 2754, 2780, 2779
2124, 2338, 2339, 2365, 2364, 2754, 2755, 2781, 2780
2125, 2339, 2340, 2366, 2365, 2755, 2756, 2782, 2781
2126, 2341, 2342, 2368, 2367, 2757, 2758, 2784, 2783
2127, 2342, 2343, 2369, 2368, 2758, 2759, 2785, 2784
2128, 2343, 2344, 2370, 2369, 2759, 2760, 2786, 2785
2129, 2344, 2345, 2371, 2370, 2760, 2761, 2787, 2786
2130, 2345, 2346, 2372, 2371, 2761, 2762, 2788, 2787
2131, 2346, 2347, 2373, 2372, 2762, 2763, 2789, 2788
2132, 2347, 2348, 2374, 2373, 2763, 2764, 2790, 2789
2133, 2348, 2349, 2375, 2374, 2764, 2765, 2791, 2790
2134, 2349, 2350, 2376, 2375, 2765, 2766, 2792, 2791
2135, 2350, 2351, 2377, 2376, 2766, 2767, 2793, 2792
2136, 2351, 2352, 2378, 2377, 2767, 2768, 2794, 2793
2137, 2352, 2353, 2379, 2378, 2768, 2769, 2795, 2794
2138, 2353, 2354, 2380, 2379, 2769, 2770, 2796, 2795
2139, 2354, 2355, 2381, 2380, 2770, 2771, 2797, 2796
2140, 2355, 2356, 2382, 2381, 2771, 2772, 2798, 2797
2141, 2356, 2357, 2383, 2382, 2772, 2773, 2799, 2798
2142, 2357, 2358, 2384, 2383, 2773, 2774, 2800, 2799
2143, 2358, 2359, 2385, 2384, 2774, 2775, 2801, 2800
2144, 2359, 2360, 2386, 2385, 2775, 2776, 2802, 2801
2145, 2360, 2361, 2387, 2386, 2776, 2777, 2803, 2802
2146, 2361, 2362, 2388, 2387, 2777, 2778, 2804, 2803
2147, 2362, 2363, 2389, 2388, 2778, 2779, 2805, 2804
2148, 2363, 2364, 2390, 2389, 2779, 2780, 2806, 2805
2149, 2364, 2365, 2391, 2390, 2780, 2781, 2807, 2806
2150, 2365, 2366, 2392, 2391, 2781, 2782, 2808, 2807
2151, 2367, 2368, 2394, 2393, 2783, 2784, 2810, 2809
2152, 2368, 2369, 2395, 2394, 2784, 2785, 2811, 2810
2153, 2369, 2370, 2396, 2395, 2785, 2786, 2812, 2811
2154, 2370, 2371, 2397, 2396, 2786, 2787, 2813, 2812
2155, 2371, 2372, 2398, 2397, 2787, 2788, 2814, 2813
2156, 2372, 2373, 2399, 2398, 2788, 2789, 2815, 2814
2157, 2373, 2374, 2400, 2399, 2789, 2790, 2816, 2815
2158, 2374, 2375, 2401, 2400, 2790, 2791, 2817, 2816
2159, 2375, 2376, 2402, 2401, 2791, 2792, 2818, 2817
2160, 2376, 2377, 2403, 2402, 2792, 2793, 2819, 2818
2161, 2377, 2378, 2404, 2403, 2793, 2794, 2820, 2819
2162, 2378, 2379, 2405, 2404, 2794, 2795, 2821, 2820
2163, 2379, 2380, 2406, 2405, 2795, 2796, 2822, 2821
2164, 2380, 2381, 2407, 2406, 2796, 2797, 2823, 2822
2165, 2381, 2382, 2408, 2407, 2797, 2798, 2824, 2823
2166, 2382, 2383, 2409, 2408, 2798, 2799, 2825, 2824
2167, 2383, 2384, 2410, 2409, 2799, 2800, 2826, 2825
2168, 2384, 2385, 2411, 2410, 2800, 2801, 2827, 2826
2169, 2385, 2386, 2412, 2411, 2801, 2802, 2828, 2827
2170, 2386, 2387, 2413, 2412, 2802, 2803, 2829, 2828
2171, 2387, 2388, 2414, 2413, 2803, 2804, 2830, 2829
2172, 2388, 2389, 2415, 2414, 2804, 2805, 2831, 2830
2173, 2389, 2390, 2416, 2415, 2805, 2806, 2832, 2831
2174, 2390, 2391, 2417, 2416, 2806, 2807, 2833, 2832
2175, 2391, 2392, 2418, 2417, 2807, 2808, 2834, 2833
2176, 2393, 2394, 2420, 2419, 2809, 2810, 2836, 2835
2177, 2394, 2395, 2421, 2420, 2810, 2811, 2837, 2836
2178, 2395, 2396, 2422, 2421, 2811, 2812, 2838, 2837
2179, 2396, 2397, 2423, 2422, 2812, 2813, 2839, 2838
2180, 2397, 2398, 2424, 2423, 2813, 2814, 2840, 2839
2181, 2398, 2399, 2425, 2424, 2814, 2815, 2841, 2840
2182, 2399, 2400, 2426, 2425, 2815, 2816, 2842, 2841
2183, 2400, 2401, 2427, 2426, 2816, 2817, 2843, 2842
2184, 2401, 2402, 2428, 2427, 2817, 2818, 2844, 2843
2185, 2402, 2403, 2429, 2428, 2818, 2819, 2845, 2844
2186, 2403, 2404, 2430, 2429, 2819, 2820, 2846, 2845
2187, 2404, 2405, 2431, 2430, 2820, 2821, 2847, 2846
2188, 2405, 2406, 2432, 2431, 2821, 2822, 2848, 2847
2189, 2406, 2407, 2433, 2432, 2822, 2823, 2849, 2848
2190, 2407, 2408, 2434, 2433, 2823, 2824, 2850, 2849
2191, 2408, 2409, 2435, 2434, 2824, 2825, 2851, 2850
2192, 2409, 2410, 2436, 2435, 2825, 2826, 2852, 2851
2193, 2410, 2411, 2437, 2436, 2826, 2827, 2853, 2852
2194, 2411, 2412, 2438, 2437, 2827, 2828, 2854, 2853
2195, 2412, 2413, 2439, 2438, 2828, 2829, 2855, 2854
2196, 2413, 2414, 2440, 2439, 2829, 2830, 2856, 2855
2197, 2414, 2415, 2441, 2440, 2830, 2831, 2857, 2856
2198, 2415, 2416, 2442, 2441, 2831, 2832, 2858, 2857
2199, 2416, 2417, 2443, 2442, 2832, 2833, 2859, 2858
2200, 2417, 2418, 2444, 2443, 2833, 2834, 2860, 2859
2201, 2419, 2420, 2446, 2445, 2835, 2836, 2862, 2861
2202, 2420, 2421, 2447, 2446, 2836, 2837, 2863, 2862
2203, 2421, 2422, 2448, 2447, 2837, 2838, 2864, 2863
2204, 2422, 2423, 2449, 2448, 2838, 2839, 2865, 2864
2205, 2423, 2424, 2450, 2449, 2839, 2840, 2866, 2865
2206, 2424, 2425, 2451, 2450, 2840, 2841, 2867, 2866
2207, 2425, 2426, 2452, 2451, 2841, 2842, 2868, 2867
2208, 2426, 2427, 2453, 2452, 2842, 2843, 2869, 2868
2209, 2427, 2428, 2454, 2453, 2843, 2844, 2870, 2869
2210, 2428, 2429, 2455, 2454, 2844, 2845, 2871, 2870
2211, 2429, 2430, 2456, 2455, 2845, 2846, 2872, 2871
2212, 2430, 2431, 2457, 2456, 2846, 2847, 2873, 2872
2213, 2431, 2432, 2458, 2457, 2847, 2848, 2874, 2873
2214, 2432, 2433, 2459, 2458, 2848, 2849, 2875, 2874
2215, 2433, 2434, 2460, 2459, 2849, 2850, 2876, 2875
2216, 2434, 2435, 2461, 2460, 2850, 2851, 2877, 2876
2217, 2435, 2436, 2462, 2461, 2851, 2852, 2878, 2877
2218, 2436, 2437, 2463, 2462, 2852, 2853, 2879, 2878
2219, 2437, 2438, 2464, 2463, 2853, 2854, 2880, 2879
2220, 2438, 2439, 2465, 2464, 2854, 2855, 2881, 2880
2221, 2439, 2440, 2466, 2465, 2855, 2856, 2882, 2881
2222, 2440, 2441, 2467, 2466, 2856, 2857, 2883, 2882
2223, 2441, 2442, 2468, 2467, 2857, 2858, 2884, 2883
2224, 2442, 2443, 2469, 2468, 2858, 2859, 2885, 2884
2225, 2443, 2444, 2470, 2469, 2859, 2860, 2886, 2885
2226, 2445, 2446, 2472, 2471, 2861, 2862, 2888, 2887
2227, 2446, 2447, 2473, 2472, 2862, 2863, 2889, 2888
2228, 2447, 2448, 2474, 2473, 2863, 2864, 2890, 2889
2229, 2448, 2449, 2475, 2474, 2864, 2865, 2891, 2890
2230, 2449, 2450, 2476, 2475, 2865, 2866, 2892, 2891
2231, 2450, 2451, 2477, 2476, 2866, 2867, 2893, 2892
2232, 2451, 2452, 2478, 2477, 2867, 2868, 2894, 2893
2233, 2452, 2453, 2479, 2478, 2868, 2869, 2895, 2894
2234, 2453, 2454, 2480, 2479, 2869, 2870, 2896, 2895
2235, 2454, 2455, 2481, 2480, 2870, 2871, 2897, 2896
2236, 2455, 2456, 2482, 2481, 2871, 2872, 2898, 2897
2237, 2456, 2457, 2483, 2482, 2872, 2873, 2899, 2898
2238, 2457, 2458, 2484, 2483, 2873, 2874, 2900, 2899
2239, 2458, 2459, 2485, 2484, 2874, 2875, 2901, 2900
2240, 2459, 2460, 2486, 2485, 2875, 2876, 2902, 2901
2241, 2460, 2461, 2487, 2486, 2876, 2877, 2903, 2902
2242, 2461, 2462, 2488, 2487, 2877, 2878, 2904, 2903
2243, 2462, 2463, 2489, 2488, 2878, 2879, 2905, 2904
2244, 2463, 2464, 2490, 2489, 2879, 2880, 2906, 2905
2245, 2464, 2465, 2491, 2490, 2880, 2881, 2907, 2906
2246, 2465, 2466, 2492, 2491, 2881, 2882, 2908, 2907
2247, 2466, 2467, 2493, 2492, 2882, 2883, 2909, 2908
2248, 2467, 2468, 2494, 2493, 2883, 2884, 2910, 2909
2249, 2468, 2469, 2495, 2494, 2884, 2885, 2911, 2910
2250, 2469, 2470, 2496, 2495, 2885, 2886, 2912, 2911
2251, 2497, 2498, 2524, 2523, 2913, 2914, 2940, 2939
2252, 2498, 2499, 2525, 2524, 2914, 2915, 2941, 2940
2253, 2499, 2500, 2526, 2525, 2915, 2916, 2942, 2941
2254, 2500, 2501, 2527, 2526, 2916, 2917, 2943, 2942
2255, 2501, 2502, 2528, 2527, 2917, 2918, 2944, 2943
2256, 2502, 2503, 2529, 2528, 2918, 2919, 2945, 2944
2257, 2503, 2504, 2530, 2529, 2919, 2920, 2946, 2945
2258, 2504, 2505, 2531, 2530, 2920, 2921, 2947, 2946
2259, 2505, 2506, 2532, 2531, 2921, 2922, 2948, 2947
2260, 2506, 2507, 2533, 2532, 2922, 2923, 2949, 2948
2261, 2507, 2508, 2534, 2533, 2923, 2924, 2950, 2949
2262, 2508, 2509, 2535, 2534, 2924, 2925, 2951, 2950
2263, 2509, 2510, 2536, 2535, 2925, 2926, 2952, 2951
2264, 2510, 2511, 2537, 2536, 2926, 2927, 2953, 2952
2265, 2511, 2512, 2538, 2537, 2927, 2928, 2954, 2953
2266, 2512, 2513, 2539, 2538, 2928, 2929, 2955, 2954
2267, 2513, 2514, 2540, 2539, 2929, 2930, 2956, 2955
2268, 2514, 2515, 2541, 2540, 2930, 2931, 2957, 2956
2269, 2515, 2516, 2542, 2541, 2931, 2932, 2958, 2957
2270, 2516, 2517, 2543, 2542, 2932, 2933, 2959, 2958
2271, 2517, 2518, 2544, 2543, 2933, 2934, 2960, 2959
2272, 2518, 2519, 2545, 2544, 2934, 2935, 2961, 2960
2273, 2519, 2520, 2546, 2545, 2935, 2936, 2962, 2961
2274, 2520, 2521, 2547, 2546, 2936, 2937, 2963, 2962
2275, 2521, 2522, 2548, 2547, 2937, 2938, 2964, 2963
2276, 2523, 2524, 2550, 2549, 2939, 2940, 2966, 2965
2277, 2524, 2525, 2551, 2550, 2940, 2941, 2967, 2966
2278, 2525, 2526, 2552, 2551, 2941, 2942, 2968, 2967
2279, 2526, 2527, 2553, 2552, 2942, 2943, 2969, 2968
2280, 2527, 2528, 2554, 2553, 2943, 2944, 2970, 2969
2281, 2528, 2529, 2555, 2554, 2944, 2945, 2971, 2970
2282, 2529, 2530, 2556, 2555, 2945, 2946, 2972, 2971
2283, 2530, 2531, 2557, 2556, 2946, 2947, 2973, 2972
2284, 2531, 2532, 2558, 2557, 2947, 2948, 2974, 2973
2285, 2532, 2533, 2559, 2558, 2948, 2949, 2975, 2974
2286, 2533, 2534, 2560, 2559, 2949, 2950, 2976, 2975
2287, 2534, 2535, 2561, 2560, 2950, 2951, 2977, 2976
2288, 2535, 2536, 2562, 2561, 2951, 2952, 2978, 2977
2289, 2536, 2537, 2563, 2562, 2952, 2953, 2979, 2978
2290, 2537, 2538, 2564, 2563, 2953, 2954, 2980, 2979
2291, 2538, 2539, 2565, 2564, 2954, 2955, 2981, 2980
2292, 2539, 2540, 2566, 2565, 2955, 2956, 2982, 2981
2293, 2540, 2541, 2567, 2566, 2956, 2957, 2983, 2982
2294, 2541, 2542, 2568, 2567, 2957, 2958, 2984, 2983
2295, 2542, 2543, 2569, 2568, 2958, 2959, 2985, 2984
2296, 2543, 2544, 2570, 2569, 2959, 2960, 2986, 2985
2297, 2544, 2545, 2571, 2570, 2960, 2961, 2987, 2986
2298, 2545, 2546, 2572, 2571, 2961, 2962, 2988, 2987
2299, 2546, 2547, 2573, 2572, 2962, 2963, 2989, 2988
2300, 2547, 2548, 2574, 2573, 2963, 2964, 2990, 2989
2301, 2549, 2550, 2576, 2575, 2965, 2966, 2992, 2991
2302, 2550, 2551, 2577, 2576, 2966, 2967, 2993, 2992
2303, 2551, 2552, 2578, 2577, 2967, 2968, 2994, 2993
2304, 2552, 2553, 2579, 2578, 2968, 2969, 2995, 2994
2305, 2553, 2554, 2580, 2579, 2969, 2970, 2996, 2995
2306, 2554, 2555, 2581, 2580, 2970, 2971, 2997, 2996
2307, 2555, 2556, 2582, 2581, 2971, 2972, 2998, 2997
2308, 2556, 2557, 2583, 2582, 2972, 2973, 2999, 2998
2309, 2557, 2558, 2584, 2583, 2973, 2974, 3000, 2999
2310, 2558, 2559, 2585, 2584, 2974, 2975, 3001, 3000
2311, 2559, 2560, 2586, 2585, 2975, 2976, 3002, 3001
2312, 2560, 2561, 2587, 2586, 2976, 2977, 3003, 3002
2313, 2561, 2562, 2588, 2587, 2977, 2978, 3004, 3003
2314, 2562, 2563, 2589, 2588, 2978, 2979, 3005, 3004
2315, 2563, 2564, 2590, 2589, 2979, 2980, 3006, 3005
2316, 2564, 2565, 2591, 2590, 2980, 2981, 3007, 3006
2317, 2565, 2566, 2592, 2591, 2981, 2982, 3008, 3007
2318, 2566, 2567, 2593, 2592, 2982, 2983, 3009, 3008
2319, 2567, 2568, 2594, 2593, 2983, 2984, 3010, 3009
2320, 2568, 2569, 2595, 2594, 2984, 2985, 3011, 3010
2321, 2569, 2570, 2596, 2595, 2985, 2986, 3012, 3011
2322, 2570, 2571, 2597, 2596, 2986, 2987, 3013, 3012
2323, 2571, 2572, 2598, 2597, 2987, 2988, 3014, 3013
2324, 2572, 2573, 2599, 2598, 2988, 2989, 3015, 3014
2325, 2573, 2574, 2600, 2599, 2989, 2990, 3016, 3015
2326, 2575, 2576, 2602, 2601, 2991, 2992, 3018, 3017
2327, 2576, 2577, 2603, 2602, 2992, 2993, 3019, 3018
2328, 2577, 2578, 2604, 2603, 2993, 2994, 3020, 3019
2329, 2578, 2579, 2605, 2604, 2994, 2995, 3021, 3020
2330, 2579, 2580, 2606, 2605, 2995, 2996, 3022, 3021
2331, 2580, 2581, 2607, 2606, 2996, 2997, 3023, 3022
2332, 2581, 2582, 2608, 2607, 2997, 2998, 3024, 3023
2333, 2582, 2583, 2609, 2608, 2998, 2999, 3025, 3024
2334, 2583, 2584, 2610, 2609, 2999, 3000, 3026, 3025
2335, 2584, 2585, 2611, 2610, 3000, 3001, 3027, 3026
2336, 2585, 2586, 2612, 2611, 3001, 3002, 3028, 3027
2337, 2586, 2587, 2613, 2612, 3002, 3003, 3029, 3028
2338, 2587, 2588, 2614, 2613, 3003, 3004, 3030, 3029
2339, 2588, 2589, 2615, 2614, 3004, 3005, 3031, 3030
2340, 2589, 2590, 2616, 2615, 3005, 3006, 3032, 3031
2341, 2590, 2591, 2617, 2616, 3006, 3007, 3033, 3032
2342, 2591, 2592, 2618, 2617, 3007, 3008, 3034, 3033
2343, 2592, 2593, 2619, 2618, 3008, 3009, 3035, 3034
2344, 2593, 2594, 2620, 2619, 3009, 3010, 3036, 3035
2345, 2594, 2595, 2621, 2620, 3010, 3011, 3037, 3036
2346, 2595, 2596, 2622, 2621, 3011, 3012, 3038, 3037
2347, 2596, 2597, 2623, 2622, 3012, 3013, 3039, 3038
2348, 2597, 2598, 2624, 2623, 3013, 3014, 3040, 3039
2349, 2598, 2599, 2625, 2624, 3014, 3015, 3041, 3040
2350, 2599, 2600, 2626, 2625, 3015, 3016, 3042, 3041
2351, 2601, 2602, 2628, 2627, 3017, 3018, 3044, 3043
2352, 2602, 2603, 2629, 2628, 3018, 3019, 3045, 3044
2353, 2603, 2604, 2630, 2629, 3019, 3020, 3046, 3045
2354, 2604, 2605, 2631, 2630, 3020, 3021, 3047, 3046
2355, 2605, 2606, 2632, 2631, 3021, 3022, 3048, 3047
2356, 2606, 2607, 2633, 2632, 3022, 3023, 3049, 3048
2357, 2607, 2608, 2634, 2633, 3023, 3024, 3050, 3049
2358, 2608, 2609, 2635, 2634, 3024, 3025, 3051, 3050
2359, 2609, 2610, 2636, 2635, 3025, 3026, 3052, 3051
2360, 2610, 2611, 2637, 2636, 3026, 3027, 3053, 3052
2361, 2611, 2612, 2638, 2637, 3027, 3028, 3054, 3053
2362, 2612, 2613, 2639, 2638, 3028, 3029, 3055, 3054
2363, 2613, 2614, 2640, 2639, 3029, 3030, 3056, 3055
2364, 2614, 2615, 2641, 2640, 3030, 3031, 3057, 3056
2365, 2615, 2616, 2642, 2641, 3031, 3032, 3058, 3057
2366, 2616, 2617, 2643, 2642, 3032, 3033, 3059, 3058
2367, 2617, 2618, 2644, 2643, 3033, 3034, 3060, 3059
2368, 2618, 2619, 2645, 2644, 3034, 3035, 3061, 3060
2369, 2619, 2620, 2646, 2645, 3035, 3036, 3062, 3061
2370, 2620, 2621, 2647, 2646, 3036, 3037, 3063, 3062
2371, 2621, 2622, 2648, 2647, 3037, 3038, 3064, 3063
2372, 2622, 2623, 2649, 2648, 3038, 3039, 3065, 3064
2373, 2623, 2624, 2650, 2649, 3039, 3040, 3066, 3065
2374, 2624, 2625, 2651, 2650, 3040, 3041, 3067, 3066
2375, 2625, 2626, 2652, 2651, 3041, 3042, 3068, 3067
2376, 2627, 2628, 2654, 2653, 3043, 3044, 3070, 3069
2377, 2628, 2629, 2655, 2654, 3044, 3045, 3071, 3070
2378, 2629, 2630, 2656, 2655, 3045, 3046, 3072, 3071
2379, 2630, 2631, 2657, 2656, 3046, 3047, 3073, 3072
2380, 2631, 2632, 2658, 2657, 3047, 3048, 3074, 3073
2381, 2632, 2633, 2659, 2658, 3048, 3049, 3075, 3074
2382, 2633, 2634, 2660, 2659, 3049, 3050, 3076, 3075
2383, 2634, 2635, 2661, 2660, 3050, 3051, 3077, 3076
2384, 2635, 2636, 2662, 2661, 3051, 3052, 3078, 3077
2385, 2636, 2637, 2663, 2662, 3052, 3053, 3079, 3078
2386, 2637, 2638, 2664, 2663, 3053, 3054, 3080, 3079
2387, 2638, 2639, 2665, 2664, 3054, 3055, 3081, 3080
2388, 2639, 2640, 2666, 2665, 3055, 3056, 3082, 3081
2389, 2640, 2641, 2667, 2666, 3056, 3057, 3083, 3082
2390, 2641, 2642, 2668, 2667, 3057, 3058, 3084, 3083
2391, 2642, 2643, 2669, 2668, 3058, 3059, 3085, 3084
2392, 2643, 2644, 2670, 2669, 3059, 3060, 3086, 3085
2393, 2644, 2645, 2671, 2670, 3060, 3061, 3087, 3086
2394, 2645, 2646, 2672, 2671, 3061, 3062, 3088, 3087
2395, 2646, 2647, 2673, 2672, 3062, 3063, 3089, 3088
2396, 2647, 2648, 2674, 2673, 3063, 3064, 3090, 3089
2397, 2648, 2649, 2675, 2674, 3064, 3065, 3091, 3090
2398, 2649, 2650, 2676, 2675, 3065, 3066, 3092, 3091
2399, 2650, 2651, 2677, 2676, 3066, 3067, 3093, 3092
2400, 2651, 2652, 2678, 2677, 3067, 3068, 3094, 3093
2401, 2653, 2654, 2680, 2679, 3069, 3070, 3096, 3095
2402, 2654, 2655, 2681, 2680, 3070, 3071, 3097, 3096
2403, 2655, 2656, 2682, 2681, 3071, 3072, 3098, 3097
2404, 2656, 2657, 2683, 2682, 3072, 3073, 3099, 3098
2405, 2657, 2658, 2684, 2683, 3073, 3074, 3100, 3099
2406, 2658, 2659, 2685, 2684, 3074, 3075, 3101, 3100
2407, 2659, 2660, 2686, 2685, 3075, 3076, 3102, 3101
2408, 2660, 2661, 2687, 2686, 3076, 3077, 3103, 3102
2409, 2661, 2662, 2688, 2687, 3077, 3078, 3104, 3103
2410, 2662, 2663, 2689, 2688, 3078, 3079, 3105, 3104
2411, 2663, 2664, 2690, 2689, 3079, 3080, 3106, 3105
2412, 2664, 2665, 2691, 2690, 3080, 3081, 3107, 3106
2413, 2665, 2666, 2692, 2691, 3081, 3082, 3108, 3107
2414, 2666, 2667, 2693, 2692, 3082, 3083, 3109, 3108
2415, 2667, 2668, 2694, 2693, 3083, 3084, 3110, 3109
2416, 2668, 2669, 2695, 2694, 3084, 3085, 3111, 3110
2417, 2669, 2670, 2696, 2695, 3085, 3086, 3112, 3111
2418, 2670, 2671, 2697, 2696, 3086, 3087, 3113, 3112
2419, 2671, 2672, 2698, 2697, 3087, 3088, 3114, 3113
2420, 2672, 2673, 2699, 2698, 3088, 3089, 3115, 3114
2421, 2673, 2674, 2700, 2699, 3089, 3090, 3116, 3115
2422, 2674, 2675, 2701, 2700, 3090, 3091, 3117, 3116
2423, 2675, 2676, 2702, 2701, 3091, 3092, 3118, 3117
2424, 2676, 2677, 2703, 2702, 3092, 3093, 3119, 3118
2425, 2677, 2678, 2704, 2703, 3093, 3094, 3120, 3119
2426, 2679, 2680, 2706, 2705, 3095, 3096, 3122, 3121
2427, 2680, 2681, 2707, 2706, 3096, 3097, 3123, 3122
2428, 2681, 2682, 2708, 2707, 3097, 3098, 3124, 3123
2429, 2682, 2683, 2709, 2708, 3098, 3099, 3125, 3124
2430, 2683, 2684, 2710, 2709, 3099, 3100, 3126, 3125
2431, 2684, 2685, 2711, 2710, 3100, 3101, 3127, 3126
2432, 2685, 2686, 2712, 2711, 3101, 3102, 3128, 3127
2433, 2686, 2687, 2713, 2712, 3102, 3103, 3129, 3128
2434, 2687, 2688, 2714, 2713, 3103, 3104, 3130, 3129
2435, 2688, 2689, 2715, 2714, 3104, 3105, 3131, 3130
2436, 2689, 2690, 2716, 2715, 3105, 3106, 3132, 3131
2437, 2690, 2691, 2717, 2716, 3106, 3107, 3133, 3132
2438, 2691, 2692, 2718, 2717, 3107, 3108, 3134, 3133
2439, 2692, 2693, 2719, 2718, 3108, 3109, 3135, 3134
2440, 2693, 2694, 2720, 2719, 3109, 3110, 3136, 3135
2441, 2694, 2695, 2721, 2720, 3110, 3111, 3137, 3136
2442, 2695, 2696, 2722, 2721, 3111, 3112, 3138, 3137
2443, 2696, 2697, 2723, 2722, 3112, 3113, 3139, 3138
2444, 2697, 2698, 2724, 2723, 3113, 3114, 3140, 3139
2445, 2698, 2699, 2725, 2724, 3114, 3115, 3141, 3140
2446, 2699, 2700, 2726, 2725, 3115, 3116, 3142, 3141
2447, 2700, 2701, 2727, 2726, 3116, 3117, 3143, 3142
2448, 2701, 2702, 2728, 2727, 3117, 3118, 3144, 3143
2449, 2702, 2703, 2729, 2728, 3118, 3119, 3145, 3144
2450, 2703, 2704, 2730, 2729, 3119, 3120, 3146, 3145
2451, 2705, 2706, 2732, 2731, 3121, 3122, 3148, 3147
2452, 2706, 2707, 2733, 2732, 3122, 3123, 3149, 3148
2453, 2707, 2708, 2734, 2733, 3123, 3124, 3150, 3149
2454, 2708, 2709, 2735, 2734, 3124, 3125, 3151, 3150
2455, 2709, 2710, 2736, 2735, 3125, 3126, 3152, 3151
2456, 2710, 2711, 2737, 2736, 3126, 3127, 3153, 3152
2457, 2711, 2712, 2738, 2737, 3127, 3128, 3154, 3153
2458, 2712, 2713, 2739, 2738, 3128, 3129, 3155, 3154
2459, 2713, 2714, 2740, 2739, 3129, 3130, 3156, 3155
2460, 2714, 2715, 2741, 2740, 3130, 3131, 3157, 3156
2461, 2715, 2716, 2742, 2741, 3131, 3132, 3158, 3157
2462, 2716, 2717, 2743, 2742, 3132, 3133, 3159, 3158
2463, 2717, 2718, 2744, 2743, 3133, 3134, 3160, 3159
2464, 2718, 2719, 2745, 2744, 3134, 3135, 3161, 3160
2465, 2719, 2720, 2746, 2745, 3135, 3136, 3162, 3161
2466, 2720, 2721, 2747, 2746, 3136, 3137, 3163, 3162
2467, 2721, 2722, 2748, 2747, 3137, 3138, 3164, 3163
2468, 2722, 2723, 2749, 2748, 3138, 3139, 3165, 3164
2469, 2723, 2724, 2750, 2749, 3139, 3140, 3166, 3165
2470, 2724, 2725, 2751, 2750, 3140, 3141, 3167, 3166
2471, 2725, 2726, 2752, 2751, 3141, 3142, 3168, 3167
2472, 2726, 2727, 2753, 2752, 3142, 3143, 3169, 3168
2473, 2727, 2728, 2754, 2753, 3143, 3144, 3170, 3169
2474, 2728, 2729, 2755, 2754, 3144, 3145, 3171, 3170
2475, 2729, 2730, 2756, 2755, 3145, 3146, 3172, 3171
2476, 2731, 2732, 2758, 2757, 3147, 3148, 3174, 3173
2477, 2732, 2733, 2759, 2758, 3148, 3149, 3175, 3174
2478, 2733, 2734, 2760, 2759, 3149, 3150, 3176, 3175
2479, 2734, 2735, 2761, 2760, 3150, 3151, 3177, 3176
2480, 2735, 2736, 2762, 2761, 3151, 3152, 3178, 3177
2481, 2736, 2737, 2763, 2762, 3152, 3153, 3179, 3178
2482, 2737, 2738, 2764, 2763, 3153, 3154, 3180, 3179
2483, 2738, 2739, 2765, 2764, 3154, 3155, 3181, 3180
2484, 2739, 2740, 2766, 2765, 3155, 3156, 3182, 3181
2485, 2740, 2741, 2767, 2766, 3156, 3157, 3183, 3182
2486, 2741, 2742, 2768, 2767, 3157, 3158, 3184, 3183
2487, 2742, 2743, 2769, 2768, 3158, 3159, 3185, 3184
2488, 2743, 2744, 2770, 2769, 3159, 3160, 3186, 3185
2489, 2744, 2745, 2771, 2770, 3160, 3161, 3187, 3186
2490, 2745, 2746, 2772, 2771, 3161, 3162, 3188, 3187
2491, 2746, 2747, 2773, 2772, 3162, 3163, 3189, 3188
2492, 2747, 2748, 2774, 2773, 3163, 3164, 3190, 3189
2493, 2748, 2749, 2775, 2774, 3164, 3165, 3191, 3190
2494, 2749, 2750, 2776, 2775, 3165, 3166, 3192, 3191
2495, 2750, 2751, 2777, 2776, 3166, 3167, 3193, 3192
2496, 2751, 2752, 2778, 2777, 3167, 3168, 3194, 3193
2497, 2752, 2753, 2779, 2778, 3168, 3169, 3195, 3194
2498, 2753, 2754, 2780, 2779, 3169, 3170, 3196, 3195
2499, 2754, 2755, 2781, 2780, 3170, 3171, 3197, 3196
2500, 2755, 2756, 2782, 2781, 3171, 3172, 3198, 3197
2501, 2757, 2758, 2784, 2783, 3173, 3174, 3200, 3199
2502, 2758, 2759, 2785, 2784, 3174, 3175, 3201, 3200
2503, 2759, 2760, 2786, 2785, 3175, 3176, 3202, 3201
2504, 2760, 2761, 2787, 2786, 3176, 3177, 3203, 3202
2505, 2761, 2762, 2788, 2787, 3177, 3178, 3204, 3203
2506, 2762, 2763, 2789, 2788, 3178, 3179, 3205, 3204
2507, 2763, 2764, 2790, 2789, 3179, 3180, 3206, 3205
2508, 2764, 2765, 2791, 2790, 3180, 3181, 3207, 3206
2509, 2765, 2766, 2792, 2791, 3181, 3182, 3208, 3207
2510, 2766, 2767, 2793, 2792, 3182, 3183, 3209, 3208
2511, 2767, 2768, 2794, 2793, 3183, 3184, 3210, 3209
2512, 2768, 2769, 2795, 2794, 3184, 3185, 3211, 3210
2513, 2769, 2770, 2796, 2795, 3185, 3186, 3212, 3211
2514, 2770, 2771, 2797, 2796, 3186, 3187, 3213, 3212
2515, 2771, 2772, 2798, 2797, 3187, 3188, 3214, 3213
2516, 2772, 2773, 2799, 2798, 3188, 3189, 3215, 3214
2517, 2773, 2774, 2800, 2799, 3189, 3190, 3216, 3215
2518, 2774, 2775, 2801, 2800, 3190, 3191, 3217, 3216
2519, 2775, 2776, 2802, 2801, 3191, 3192, 3218, 3217
2520, 2776, 2777, 2803, 2802, 3192, 3193, 3219, 3218
2521, 2777, 2778, 2804, 2803, 3193, 3194, 3220, 3219
2522, 2778, 2779, 2805, 2804, 3194, 3195, 3221, 3220
2523, 2779, 2780, 2806, 2805, 3195, 3196, 3222, 3221
2524, 2780, 2781, 2807, 2806, 3196, 3197, 3223, 3222
2525, 2781, 2782, 2808, 2807, 3197, 3198, 3224, 3223
2526, 2783, 2784, 2810, 2809, 3199, 3200, 3226, 3225
2527, 2784, 2785, 2811, 2810, 3200, 3201, 3227, 3226
2528, 2785, 2786, 2812, 2811, 3201, 3202, 3228, 3227
2529, 2786, 2787, 2813, 2812, 3202, 3203, 3229, 3228
2530, 2787, 2788, 2814, 2813, 3203, 3204, 3230, 3229
2531, 2788, 2789, 2815, 2814, 3204, 3205, 3231, 3230
2532, 2789, 2790, 2816, 2815, 3205, 3206, 3232, 3231
2533, 2790, 2791, 2817, 2816, 3206, 3207, 3233, 3232
2534, 2791, 2792, 2818, 2817, 3207, 3208, 3234, 3233
2535, 2792, 2793, 2819, 2818, 3208, 3209, 3235, 3234
2536, 2793, 2794, 2820, 2819, 3209, 3210, 3236, 3235
2537, 2794, 2795, 2821, 2820, 3210, 3211, 3237, 3236
2538, 2795, 2796, 2822, 2821, 3211, 3212, 3238, 3237
2539, 2796, 2797, 2823, 2822, 3212, 3213, 3239, 3238
2540, 2797, 2798, 2824, 2823, 3213, 3214, 3240, 3239
2541, 2798, 2799, 2825, 2824, 3214, 3215, 3241, 3240
2542, 2799, 2800, 2826, 2825, 3215, 3216, 3242, 3241
2543, 2800, 2801, 2827, 2826, 3216, 3217, 3243, 3242
2544, 2801, 2802, 2828, 2827, 3217, 3218, 3244, 3243
2545, 2802, 2803, 2829, 2828, 3218, 3219, 3245, 3244
2546, 2803, 2804, 2830, 2829, 3219, 3220, 3246, 3245
2547, 2804, 2805, 2831, 2830, 3220, 3221, 3247, 3246
2548, 2805, 2806, 2832, 2831, 3221, 3222, 3248, 3247
2549, 2806, 2807, 2833, 2832, 3222, 3223, 3249, 3248
2550, 2807, 2808, 2834, 2833, 3223, 3224, 3250, 3249
2551, 2809, 2810, 2836, 2835, 3225, 3226, 3252, 3251
2552, 2810, 2811, 2837, 2836, 3226, 3227, 3253, 3252
2553, 2811, 2812, 2838, 2837, 3227, 3228, 3254, 3253
2554, 2812, 2813, 2839, 2838, 3228, 3229, 3255, 3254
2555, 2813, 2814, 2840, 2839, 3229, 3230, 3256, 3255
2556, 2814, 2815, 2841, 2840, 3230, 3231, 3257, 3256
2557, 2815, 2816, 2842, 2841, 3231, 3232, 3258, 3257
2558, 2816, 2817, 2843, 2842, 3232, 3233, 3259, 3258
2559, 2817, 2818, 2844, 2843, 3233, 3234, 3260, 3259
2560, 2818, 2819, 2845, 2844, 3234, 3235, 3261, 3260
2561, 2819, 2820, 2846, 2845, 3235, 3236, 3262, 3261
2562, 2820, 2821, 2847, 2846, 3236, 3237, 3263, 3262
2563, 2821, 2822, 2848, 2847, 3237, 3238, 3264, 3263
2564, 2822, 2823, 2849, 2848, 3238, 3239, 3265, 3264
2565, 2823, 2824, 2850, 2849, 3239, 3240, 3266, 3265
2566, 2824, 2825, 2851, 2850, 3240, 3241, 3267, 3266
2567, 2825, 2826, 2852, 2851, 3241, 3242, 3268, 3267
2568, 2826, 2827, 2853, 2852, 3242, 3243, 3269, 3268
2569, 2827, 2828, 2854, 2853, 3243, 3244, 3270, 3269
2570, 2828, 2829, 2855, 2854, 3244, 3245, 3271, 3270
2571, 2829, 2830, 2856, 2855, 3245, 3246, 3272, 3271
2572, 2830, 2831, 2857, 2856, 3246, 3247, 3273, 3272
2573, 2831, 2832, 2858, 2857, 3247, 3248, 3274, 3273
2574, 2832, 2833, 2859, 2858, 3248, 3249, 3275, 3274
2575, 2833, 2834, 2860, 2859, 3249, 3250, 3276, 3275
2576, 2835, 2836, 2862, 2861, 3251, 3252, 3278, 3277
2577, 2836, 2837, 2863, 2862, 3252, 3253, 3279, 3278
2578, 2837, 2838, 2864, 2863, 3253, 3254, 3280, 3279
2579, 2838, 2839, 2865, 2864, 3254, 3255, 3281, 3280
2580, 2839, 2840, 2866, 2865, 3255, 3256, 3282, 3281
2581, 2840, 2841, 2867, 2866, 3256, 3257, 3283, 3282
2582, 2841, 2842, 2868, 2867, 3257, 3258, 3284, 3283
2583, 2842, 2843, 2869, 2868, 3258, 3259, 3285, 3284
2584, 2843, 2844, 2870, 2869, 3259, 3260, 3286, 3285
2585, 2844, 2845, 2871, 2870, 3260, 3261, 3287, 3286
2586, 2845, 2846, 2872, 2871, 3261, 3262, 3288, 3287
2587, 2846, 2847, 2873, 2872, 3262, 3263, 3289, 3288
2588, 2847, 2848, 2874, 2873, 3263, 3264, 3290, 3289
2589, 2848, 2849, 2875, 2874, 3264, 3265, 3291, 3290
2590, 2849, 2850, 2876, 2875, 3265, 3266, 3292, 3291
2591, 2850, 2851, 2877, 2876, 3266, 3267, 3293, 3292
2592, 2851, 2852, 2878, 2877, 3267, 3268, 3294, 3293
2593, 2852, 2853, 2879, 2878, 3268, 3269, 3295, 3294
2594, 2853, 2854, 2880, 2879, 3269, 3270, 3296, 3295
2595, 2854, 2855, 2881, 2880, 3270, 3271, 3297, 3296
2596, 2855, 2856, 2882, 2881, 3271, 3272, 3298, 3297
2597, 2856, 2857, 2883, 2882, 3272, 3273, 3299, 3298
2598, 2857, 2858, 2884, 2883, 3273, 3274, 3300, 3299
2599, 2858, 2859, 2885, 2884, 3274, 3275, 3301, 3300
2600, 2859, 2860, 2886, 2885, 3275, 3276, 3302, 3301
2601, 2861, 2862, 2888, 2887, 3277, 3278, 3304, 3303
2602, 2862, 2863, 2889, 2888, 3278, 3279, 3305, 3304
2603, 2863, 2864, 2890, 2889, 3279, 3280, 3306, 3305
2604, 2864, 2865, 2891, 2890, 3280, 3281, 3307, 3306
2605, 2865, 2866, 2892, 2891, 3281, 3282, 3308, 3307
2606, 2866, 2867, 2893, 2892, 3282, 3283, 3309, 3308
2607, 2867, 2868, 2894, 2893, 3283, 3284, 3310, 3309
2608, 2868, 2869, 2895, 2894, 3284, 3285, 3311, 3310
2609, 2869, 2870, 2896, 2895, 3285, 3286, 3312, 3311
2610, 2870, 2871, 2897, 2896, 3286, 3287, 3313, 3312
2611, 2871, 2872, 2898, 2897, 3287, 3288, 3314, 3313
2612, 2872, 2873, 2899, 2898, 3288, 3289, 3315, 3314
2613, 2873, 2874, 2900, 2899, 3289, 3290, 3316, 3315
2614, 2874, 2875, 2901, 2900, 3290, 3291, 3317, 3316
2615, 2875, 2876, 2902, 2901, 3291, 3292, 3318, 3317
2616, 2876, 2877, 2903, 2902, 3292, 3293, 3319, 3318
2617, 2877, 2878, 2904, 2903, 3293, 3294, 3320, 3319
2618, 2878, 2879, 2905, 2904, 3294, 3295, 3321, 3320
2619, 2879, 2880, 2906, 2905, 3295, 3296, 3322, 3321
2620, 2880, 2881, 2907, 2906, 3296, 3297, 3323, 3322
2621, 2881, 2882, 2908, 2907, 3297, 3298, 3324, 3323
2622, 2882, 2883, 2909, 2908, 3298, 3299, 3325, 3324
2623, 2883, 2884, 2910, 2909, 3299, 3300, 3326, 3325
2624, 2884, 2885, 2911, 2910, 3300, 3301, 3327, 3326
2625, 2885, 2886, 2912, 2911, 3301, 3302, 3328, 3327
2626, 2913, 2914, 2940, 2939, 3329, 3330, 3356, 3355
2627, 2914, 2915, 2941, 2940, 3330, 3331, 3357, 3356
2628, 2915, 2916, 2942, 2941, 3331, 3332, 3358, 3357
2629, 2916, 2917, 2943, 2942, 3332, 3333, 3359, 3358
2630, 2917, 2918, 2944, 2943, 3333, 3334, 3360, 3359
2631, 2918, 2919, 2945, 2944, 3334, 3335, 3361, 3360
2632, 2919, 2920, 2946, 2945, 3335, 3336, 3362, 3361
2633, 2920, 2921, 2947, 2946, 3336, 3337, 3363, 3362
2634, 2921, 2922, 2948, 2947, 3337, 3338, 3364, 3363
2635, 2922, 2923, 2949, 2948, 3338, 3339, 3365, 3364
2636, 2923, 2924, 2950, 2949, 3339, 3340, 3366, 3365
2637, 2924, 2925, 2951, 2950, 3340, 3341, 3367, 3366
2638, 2925, 2926, 2952, 2951, 3341, 3342, 3368, 3367
2639, 2926, 2927, 2953, 2952, 3342, 3343, 3369, 3368
2640, 2927, 2928, 2954, 2953, 3343, 3344, 3370, 3369
2641, 2928, 2929, 2955, 2954, 3344, 3345, 3371, 3370
2642, 2929, 2930, 2956, 2955, 3345, 3346, 3372, 3371
2643, 2930, 2931, 2957, 2956, 3346, 3347, 3373, 3372
2644, 2931, 2932, 2958, 2957, 3347, 3348, 3374, 3373
2645, 2932, 2933, 2959, 2958, 3348, 3349, 3375, 3374
2646, 2933, 2934, 2960, 2959, 3349, 3350, 3376, 3375
2647, 2934, 2935, 2961, 2960, 3350, 3351, 3377, 3376
2648, 2935, 2936, 2962, 2961, 3351, 3352, 3378, 3377
2649, 2936, 2937, 2963, 2962, 3352, 3353, 3379, 3378
2650, 2937, 2938, 2964, 2963, 3353, 3354, 3380, 3379
2651, 2939, 2940, 2966, 2965, 3355, 3356, 3382, 3381
2652, 2940, 2941, 2967, 2966, 3356, 3357, 3383, 3382
2653, 2941, 2942, 2968, 2967, 3357, 3358, 3384, 3383
2654, 2942, 2943, 2969, 2968, 3358, 3359, 3385, 3384
2655, 2943, 2944, 2970, 2969, 3359, 3360, 3386, 3385
2656, 2944, 2945, 2971, 2970, 3360, 3361, 3387, 3386
2657, 2945, 2946, 2972, 2971, 3361, 3362, 3388, 3387
2658, 2946, 2947, 2973, 2972, 3362, 3363, 3389, 3388
2659, 2947, 2948, 2974, 2973, 3363, 3364, 3390, 3389
2660, 2948, 2949, 2975, 2974, 3364, 3365, 3391, 3390
2661, 2949, 2950, 2976, 2975, 3365, 3366, 3392, 3391
2662, 2950, 2951, 2977, 2976, 3366, 3367, 3393, 3392
2663, 2951, 2952, 2978, 2977, 3367, 3368, 3394, 3393
2664, 2952, 2953, 2979, 2978, 3368, 3369, 3395, 3394
2665, 2953, 2954, 2980, 2979, 3369, 3370, 3396, 3395
2666, 2954, 2955, 2981, 2980, 3370, 3371, 3397, 3396
2667, 2955, 2956, 2982, 2981, 3371, 3372, 3398, 3397
2668, 2956, 2957, 2983, 2982, 3372, 3373, 3399, 3398
2669, 2957, 2958, 2984, 2983, 3373, 3374, 3400, 3399
2670, 2958, 2959, 2985, 2984, 3374, 3375, 3401, 3400
2671, 2959, 2960, 2986, 2985, 3375, 3376, 3402, 3401
2672, 2960, 2961, 2987, 2986, 3376, 3377, 3403, 3402
2673, 2961, 2962, 2988, 2987, 3377, 3378, 3404, 3403
2674, 2962, 2963, 2989, 2988, 3378, 3379, 3405, 3404
2675, 2963, 2964, 2990, 2989, 3379, 3380, 3406, 3405
2676, 2965, 2966, 2992, 2991, 3381, 3382, 3408, 3407
2677, 2966, 2967, 2993, 2992, 3382, 3383, 3409, 3408
2678, 2967, 2968, 2994, 2993, 3383, 3384, 3410, 3409
2679, 2968, 2969, 2995, 2994, 3384, 3385, 3411, 3410
2680, 2969, 2970, 2996, 2995, 3385, 3386, 3412, 3411
2681, 2970, 2971, 2997, 2996, 3386, 3387, 3413, 3412
2682, 2971, 2972, 2998, 2997, 3387, 3388, 3414, 3413
2683, 2972, 2973, 2999, 2998, 3388, 3389, 3415, 3414
2684, 2973, 2974, 3000, 2999, 3389, 3390, 3416, 3415
2685, 2974, 2975, 3001, 3000, 3390, 3391, 3417, 3416
2686, 2975, 2976, 3002, 3001, 3391, 3392, 3418, 3417
2687, 2976, 2977, 3003, 3002, 3392, 3393, 3419, 3418
2688, 2977, 2978, 3004, 3003, 3393, 3394, 3420, 3419
2689, 2978, 2979, 3005, 3004, 3394, 3395, 3421, 3420
2690, 2979, 2980, 3006, 3005, 3395, 3396, 3422, 3421
2691, 2980, 2981, 3007, 3006, 3396, 3397, 3423, 3422
2692, 2981, 2982, 3008, 3007, 3397, 3398, 3424, 3423
2693, 2982, 2983, 3009, 3008, 3398, 3399, 3425, 3424
2694, 2983, 2984, 3010, 3009, 3399, 3400, 3426, 3425
2695, 2984, 2985, 3011, 3010, 3400, 3401, 3427, 3426
2696, 2985, 2986, 3012, 3011, 3401, 3402, 3428, 3427
2697, 2986, 2987, 3013, 3012, 3402, 3403, 3429, 3428
2698, 2987, 2988, 3014, 3013, 3403, 3404, 3430, 3429
2699, 2988, 2989, 3015, 3014, 3404, 3405, 3431, 3430
2700, 2989, 2990, 3016, 3015, 3405, 3406, 3432, 3431
2701, 2991, 2992, 3018, 3017, 3407, 3408, 3434, 3433
2702, 2992, 2993, 3019, 3018, 3408, 3409, 3435, 3434
2703, 2993, 2994, 3020, 3019, 3409, 3410, 3436, 3435
2704, 2994, 2995, 3021, 3020, 3410, 3411, 3437, 3436
2705, 2995, 2996, 3022, 3021, 3411, 3412, 3438, 3437
2706, 2996, 2997, 3023, 3022, 3412, 3413, 3439, 3438
2707, 2997, 2998, 3024, 3023, 3413, 3414, 3440, 3439
2708, 2998, 2999, 3025, 3024, 3414, 3415, 3441, 3440
2709, 2999, 3000, 3026, 3025, 3415, 3416, 3442, 3441
2710, 3000, 3001, 3027, 3026, 3416, 3417, 3443, 3442
2711, 3001, 3002, 3028, 3027, 3417, 3418, 3444, 3443
2712, 3002, 3003, 3029, 3028, 3418, 3419, 3445, 3444
2713, 3003, 3004, 3030, 3029, 3419, 3420, 3446, 3445
2714, 3004, 3005, 3031, 3030, 3420, 3421, 3447, 3446
2715, 3005, 3006, 3032, 3031, 3421, 3422, 3448, 3447
2716, 3006, 3007, 3033, 3032, 3422, 3423, 3449, 3448
2717, 3007, 3008, 3034, 3033, 3423, 3424, 3450, 3449
2718, 3008, 3009, 3035, 3034, 3424, 3425, 3451, 3450
2719, 3009, 3010, 3036, 3035, 3425, 3426, 3452, 3451
2720, 3010, 3011, 3037, 3036, 3426, 3427, 3453, 3452
2721, 3011, 3012, 3038, 3037, 3427, 3428, 3454, 3453
2722, 3012, 3013, 3039, 3038, 3428, 3429, 3455, 3454
2723, 3013, 3014, 3040, 3039, 3429, 3430, 3456, 3455
2724, 3014, 3015, 3041, 3040, 3430, 3431, 3457, 3456
2725, 3015, 3016, 3042, 3041, 3431, 3432, 3458, 3457
2726, 3017, 3018, 3044, 3043, 3433, 3434, 3460, 3459
2727, 3018, 3019, 3045, 3044, 3434, 3435, 3461, 3460
2728, 3019, 3020, 3046, 3045, 3435, 3436, 3462, 3461
2729, 3020, 3021, 3047, 3046, 3436, 3437, 3463, 3462
2730, 3021, 3022, 3048, 3047, 3437, 3438, 3464, 3463
2731, 3022, 3023, 3049, 3048, 3438, 3439, 3465, 3464
2732, 3023, 3024, 3050, 3049, 3439, 3440, 3466, 3465
2733, 3024, 3025, 3051, 3050, 3440, 3441, 3467, 3466
2734, 3025, 3026, 3052, 3051, 3441, 3442, 3468, 3467
2735, 3026, 3027, 3053, 3052, 3442, 3443, 3469, 3468
2736, 3027, 3028, 3054, 3053, 3443, 3444, 3470, 3469
2737, 3028, 3029, 3055, 3054, 3444, 3445, 3471, 3470
2738, 3029, 3030, 3056, 3055, 3445, 3446, 3472, 3471
2739, 3030, 3031, 3057, 3056, 3446, 3447, 3473, 3472
2740, 3031, 3032, 3058, 3057, 3447, 3448, 3474, 3473
2741, 3032, 3033, 3059, 3058, 3448, 3449, 3475, 3474
2742, 3033, 3034, 3060, 3059, 3449, 3450, 3476, 3475
2743, 3034, 3035, 3061, 3060, 3450, 3451, 3477, 3476
2744, 3035, 3036, 3062, 3061, 3451, 3452, 3478, 3477
2745, 3036, 3037, 3063, 3062, 3452, 3453, 3479, 3478
2746, 3037, 3038, 3064, 3063, 3453, 3454, 3480, 3479
2747, 3038, 3039, 3065, 3064, 3454, 3455, 3481, 3480
2748, 3039, 3040, 3066, 3065, 3455, 3456, 3482, 3481
2749, 3040, 3041, 3067, 3066, 3456, 3457, 3483, 3482
2750, 3041, 3042, 3068, 3067, 3457, 3458, 3484, 3483
2751, 3043, 3044, 3070, 3069, 3459, 3460, 3486, 3485
2752, 3044, 3045, 3071, 3070, 3460, 3461, 3487, 3486
2753, 3045, 3046, 3072, 3071, 3461, 3462, 3488, 3487
2754, 3046, 3047, 3073, 3072, 3462, 3463, 3489, 3488
2755, 3047, 3048, 3074, 3073, 3463, 3464, 3490, 3489
2756, 3048, 3049, 3075, 3074, 3464, 3465, 3491, 3490
2757, 3049, 3050, 3076, 3075, 3465, 3466, 3492, 3491
2758, 3050, 3051, 3077, 3076, 3466, 3467, 3493, 3492
2759, 3051, 3052, 3078, 3077, 3467, 3468, 3494, 3493
2760, 3052, 3053, 3079, 3078, 3468, 3469, 3495, 3494
2761, 3053, 3054, 3080, 3079, 3469, 3470, 3496, 3495
2762, 3054, 3055, 3081, 3080, 3470, 3471, 3497, 3496
2763, 3055, 3056, 3082, 3081, 3471, 3472, 3498, 3497
2764, 3056, 3057, 3083, 3082, 3472, 3473, 3499, 3498
2765, 3057, 3058, 3084, 3083, 3473, 3474, 3500, 3499
2766, 3058, 3059, 3085, 3084, 3474, 3475, 3501, 3500
2767, 3059, 3060, 3086, 3085, 3475, 3476, 3502, 3501
2768, 3060, 3061, 3087, 3086, 3476, 3477, 3503, 3502
2769, 3061, 3062, 3088, 3087, 3477, 3478, 3504, 3503
2770, 3062, 3063, 3089, 3088, 3478, 3479, 3505, 3504
2771, 3063, 3064, 3090, 3089, 3479, 3480, 3506, 3505
2772, 3064, 3065, 3091, 3090, 3480, 3481, 3507, 3506
2773, 3065, 3066, 3092, 3091, 3481, 3482, 3508, 3507
2774, 3066, 3067, 3093, 3092, 3482, 3483, 3509, 3508
2775, 3067, 3068, 3094, 3093, 3483, 3484, 3510, 3509
2776, 3069, 3070, 3096, 3095, 3485, 3486, 3512, 3511
2777, 3070, 3071, 3097, 3096, 3486, 3487, 3513, 3512
2778, 3071, 3072, 3098, 3097, 3487, 3488, 3514, 3513
2779, 3072, 3073, 3099, 3098, 3488, 3489, 3515, 3514
2780, 3073, 3074, 3100, 3099, 3489, 3490, 3516, 3515
2781, 3074, 3075, 3101, 3100, 3490, 3491, 3517, 3516
2782, 3075, 3076, 3102, 3101, 3491, 3492, 3518, 3517
2783, 3076, 3077, 3103, 3102, 3492, 3493, 3519, 3518
2784, 3077, 3078, 3104, 3103, 3493, 3494, 3520, 3519
2785, 3078, 3079, 3105, 3104, 3494, 3495, 3521, 3520
2786, 3079, 3080, 3106, 3105, 3495, 3496, 3522, 3521
2787, 3080, 3081, 3107, 3106, 3496, 3497, 3523, 3522
2788, 3081, 3082, 3108, 3107, 3497, 3498, 3524, 3523
2789, 3082, 3083, 3109, 3108, 3498, 3499, 3525, 3524
2790, 3083, 3084, 3110, 3109, 3499, 3500, 3526, 3525
2791, 3084, 3085, 3111, 3110, 3500, 3501, 3527, 3526
2792, 3085, 3086, 3112, 3111, 3501, 3502, 3528, 3527
2793, 3086, 3087, 3113, 3112, 3502, 3503, 3529, 3528
2794, 3087, 3088, 3114, 3113, 3503, 3504, 3530, 3529
2795, 3088, 3089, 3115, 3114, 3504, 3505, 3531, 3530
2796, 3089, 3090, 3116, 3115, 3505, 3506, 3532, 3531
2797, 3090, 3091, 3117, 3116, 3506, 3507, 3533, 3532
2798, 3091, 3092, 3118, 3117, 3507, 3508, 3534, 3533
2799, 3092, 3093, 3119, 3118, 3508, 3509, 3535, 3534
2800, 3093, 3094, 3120, 3119, 3509, 3510, 3536, 3535
2801, 3095, 3096, 3122, 3121, 3511, 3512, 3538, 3537
2802, 3096, 3097, 3123, 3122, 3512, 3513, 3539, 3538
2803, 3097, 3098, 3124, 3123, 3513, 3514, 3540, 3539
2804, 3098, 3099, 3125, 3124, 3514, 3515, 3541, 3540
2805, 3099, 3100, 3126, 3125, 3515, 3516, 3542, 3541
2806, 3100, 3101, 3127, 3126, 3516, 3517, 3543, 3542
2807, 3101, 3102, 3128, 3127, 3517, 3518, 3544, 3543
2808, 3102, 3103, 3129, 3128, 3518, 3519, 3545, 3544
2809, 3103, 3104, 3130, 3129, 3519, 3520, 3546, 3545
2810, 3104, 3105, 3131, 3130, 3520, 3521, 3547, 3546
2811, 3105, 3106, 3132, 3131, 3521, 3522, 3548, 3547
2812, 3106, 3107, 3133, 3132, 3522, 3523, 3549, 3548
2813, 3107, 3108, 3134, 3133, 3523, 3524, 3550, 3549
2814, 3108, 3109, 3135, 3134, 3524, 3525, 3551, 3550
2815, 3109, 3110, 3136, 3135, 3525, 3526, 3552, 3551
2816, 3110, 3111, 3137, 3136, 3526, 3527, 3553, 3552
2817, 3111, 3112, 3138, 3137, 3527, 3528, 3554, 3553
2818, 3112, 3113, 3139, 3138, 3528, 3529, 3555, 3554
2819, 3113, 3114, 3140, 3139, 3529, 3530, 3556, 3555
2820, 3114, 3115, 3141, 3140, 3530, 3531, 3557, 3556
2821, 3115, 3116, 3142, 3141, 3531, 3532, 3558, 3557
2822, 3116, 3117, 3143, 3142, 3532, 3533, 3559, 3558
2823, 3117, 3118, 3144, 3143, 3533, 3534, 3560, 3559
2824, 3118, 3119, 3145, 3144, 3534, 3535, 3561, 3560
2825, 3119, 3120, 3146, 3145, 3535, 3536, 3562, 3561
2826, 3121, 3122, 3148, 3147, 3537, 3538, 3564, 3563
2827, 3122, 3123, 3149, 3148, 3538, 3539, 3565, 3564
2828, 3123, 3124, 3150, 3149, 3539, 3540, 3566, 3565
2829, 3124, 3125, 3151, 3150, 3540, 3541, 3567, 3566
2830, 3125, 3126, 3152, 3151, 3541, 3542, 3568, 3567
2831, 3126, 3127, 3153, 3152, 3542, 3543, 3569, 3568
2832, 3127, 3128, 3154, 3153, 3543, 3544, 3570, 3569
2833, 3128, 3129, 3155, 3154, 3544, 3545, 3571, 3570
2834, 3129, 3130, 3156, 3155, 3545, 3546, 3572, 3571
2835, 3130, 3131, 3157, 3156, 3546, 3547, 3573, 3572
2836, 3131, 3132, 3158, 3157, 3547, 3548, 3574, 3573
2837, 3132, 3133, 3159, 3158, 3548, 3549, 3575, 3574
2838, 3133, 3134, 3160, 3159, 3549, 3550, 3576, 3575
2839, 3134, 3135, 3161, 3160, 3550, 3551, 3577, 3576
2840, 3135, 3136, 3162, 3161, 3551, 3552, 3578, 3577
2841, 3136, 3137, 3163, 3162, 3552, 3553, 3579, 3578
2842, 3137, 3138, 3164, 3163, 3553, 3554, 3580, 3579
2843, 3138, 3139, 3165, 3164, 3554, 3555, 3581, 3580
2844, 3139, 3140, 3166, 3165, 3555, 3556, 3582, 3581
2845, 3140, 3141, 3167, 3166, 3556, 3557, 3583, 3582
2846, 3141, 3142, 3168, 3167, 3557, 3558, 3584, 3583
2847, 3142, 3143, 3169, 3168, 3558, 3559, 3585, 3584
2848, 3143, 3144, 3170, 3169, 3559, 3560, 3586, 3585
2849, 3144, 3145, 3171, 3170, 3560, 3561, 3587, 3586
2850, 3145, 3146, 3172, 3171, 3561, 3562, 3588, 3587
2851, 3147, 3148, 3174, 3173, 3563, 3564, 3590, 3589
2852, 3148, 3149, 3175, 3174, 3564, 3565, 3591, 3590
2853, 3149, 3150, 3176, 3175, 3565, 3566, 3592, 3591
2854, 3150, 3151, 3177, 3176, 3566, 3567, 3593, 3592
2855, 3151, 3152, 3178, 3177, 3567, 3568, 3594, 3593
2856, 3152, 3153, 3179, 3178, 3568, 3569, 3595, 3594
2857, 3153, 3154, 3180, 3179, 3569, 3570, 3596, 3595
2858, 3154, 3155, 3181, 3180, 3570, 3571, 3597, 3596
2859, 3155, 3156, 3182, 3181, 3571, 3572, 3598, 3597
2860, 3156, 3157, 3183, 3182, 3572, 3573, 3599, 3598
2861, 3157, 3158, 3184, 3183, 3573, 3574, 3600, 3599
2862, 3158, 3159, 3185, 3184, 3574, 3575, 3601, 3600
2863, 3159, 3160, 3186, 3185, 3575, 3576, 3602, 3601
2864, 3160, 3161, 3187, 3186, 3576, 3577, 3603, 3602
2865, 3161, 3162, 3188, 3187, 3577, 3578, 3604, 3603
2866, 3162, 3163, 3189, 3188, 3578, 3579, 3605, 3604
2867, 3163, 3164, 3190, 3189, 3579, 3580, 3606, 3605
2868, 3164, 3165, 3191, 3190, 3580, 3581, 3607, 3606
2869, 3165, 3166, 3192, 3191, 3581, 3582, 3608, 3607
2870, 3166, 3167, 3193, 3192, 3582, 3583, 3609, 3608
2871, 3167, 3168, 3194, 3193, 3583, 3584, 3610, 3609
2872, 3168, 3169, 3195, 3194, 3584, 3585, 3611, 3610
2873, 3169, 3170, 3196, 3195, 3585, 3586, 3612, 3611
2874, 3170, 3171, 3197, 3196, 3586, 3587, 3613, 3612
2875, 3171, 3172, 3198, 3197, 3587, 3588, 3614, 3613
2876, 3173, 3174, 3200, 3199, 3589, 3590, 3616, 3615
2877, 3174, 3175, 3201, 3200, 3590, 3591, 3617, 3616
2878, 3175, 3176, 3202, 3201, 3591, 3592, 3618, 3617
2879, 3176, 3177, 3203, 3202, 3592, 3593, 3619, 3618
2880, 3177, 3178, 3204, 3203, 3593, 3594, 3620, 3619
2881, 3178, 3179, 3205, 3204, 3594, 3595, 3621, 3620
2882, 3179, 3180, 3206, 3205, 3595, 3596, 3622, 3621
2883, 3180, 3181, 3207, 3206, 3596, 3597, 3623, 3622
2884, 3181, 3182, 3208, 3207, 3597, 3598, 3624, 3623
2885, 3182, 3183, 3209, 3208, 3598, 3599, 3625, 3624
2886, 3183, 3184, 3210, 3209, 3599, 3600, 3626, 3625
2887, 3184, 3185, 3211, 3210, 3600, 3601, 3627, 3626
2888, 3185, 3186, 3212, 3211, 3601, 3602, 3628, 3627
2889, 3186, 3187, 3213, 3212, 3602, 3603, 3629, 3628
2890, 3187, 3188, 3214, 3213, 3603, 3604, 3630, 3629
2891, 3188, 3189, 3215, 3214, 3604, 3605, 3631, 3630
2892, 3189, 3190, 3216, 3215, 3605, 3606, 3632, 3631
2893, 3190, 3191, 3217, 3216, 3606, 3607, 3633, 3632
2894, 3191, 3192, 3218, 3217, 3607, 3608, 3634, 3633
2895, 3192, 3193, 3219, 3218, 3608, 3609, 3635, 3634
2896, 3193, 3194, 3220, 3219, 3609, 3610, 3636, 3635
2897, 3194, 3195, 3221, 3220, 3610, 3611, 3637, 3636
2898, 3195, 3196, 3222, 3221, 3611, 3612, 3638, 3637
2899, 3196, 3197, 3223, 3222, 3612, 3613, 3639, 3638
2900, 3197, 3198, 3224, 3223, 3613, 3614, 3640, 3639
2901, 3199, 3200, 3226, 3225, 3615, 3616, 3642, 3641
2902, 3200, 3201, 3227, 3226, 3616, 3617, 3643, 3642
2903, 3201, 3202, 3228, 3227, 3617, 3618, 3644, 3643
2904, 3202, 3203, 3229, 3228, 3618, 3619, 3645, 3644
2905, 3203, 3204, 3230, 3229, 3619, 3620, 3646, 3645
2906, 3204, 3205, 3231, 3230, 3620, 3621, 3647, 3646
2907, 3205, 3206, 3232, 3231, 3621, 3622, 3648, 3647
2908, 3206, 3207, 3233, 3232, 3622, 3623, 3649, 3648
2909, 3207, 3208, 3234, 3233, 3623, 3624, 3650, 3649
2910, 3208, 3209, 3235, 3234, 3624, 3625, 3651, 3650
2911, 3209, 3210, 3236, 3235, 3625, 3626, 3652, 3651
2912, 3210, 3211, 3237, 3236, 3626, 3627, 3653, 3652
2913, 3211, 3212, 3238, 3237, 3627, 3628, 3654, 3653
2914, 3212, 3213, 3239, 3238, 3628, 3629, 3655, 3654
2915, 3213, 3214, 3240, 3239, 3629, 3630, 3656, 3655
2916, 3214, 3215, 3241, 3240, 3630, 3631, 3657, 3656
2917, 3215, 3216, 3242, 3241, 3631, 3632, 3658, 3657
2918, 3216, 3217, 3243, 3242, 3632, 3633, 3659, 3658
2919, 3217, 3218, 3244, 3243, 3633, 3634, 3660, 3659
2920, 3218, 3219, 3245, 3244, 3634, 3635, 3661, 3660
2921, 3219, 3220, 3246, 3245, 3635, 3636, 3662, 3661
2922, 3220, 3221, 3247, 3246, 3636, 3637, 3663, 3662
2923, 3221, 3222, 3248, 3247, 3637, 3638, 3664, 3663
2924, 3222, 3223, 3249, 3248, 3638, 3639, 3665, 3664
2925, 3223, 3224, 3250, 3249, 3639, 3640, 3666, 3665
2926, 3225, 3226, 3252, 3251, 3641, 3642, 3668, 3667
2927, 3226, 3227, 3253, 3252, 3642, 3643, 3669, 3668
2928, 3227, 3228, 3254, 3253, 3643, 3644, 3670, 3669
2929, 3228, 3229, 3255, 3254, 3644, 3645, 3671, 3670
2930, 3229, 3230, 3256, 3255, 3645, 3646, 3672, 3671
2931, 3230, 3231, 3257, 3256, 3646, 3647, 3673, 3672
2932, 3231, 3232, 3258, 3257, 3647, 3648, 3674, 3673
2933, 3232, 3233, 3259, 3258, 3648, 3649, 3675, 3674
2934, 3233, 3234, 3260, 3259, 3649, 3650, 3676, 3675
2935, 3234, 3235, 3261, 3260, 3650, 3651, 3677, 3676
2936, 3235, 3236, 3262, 3261, 3651, 3652, 3678, 3677
2937, 3236, 3237, 3263, 3262, 3652, 3653, 3679, 3678
2938, 3237, 3238, 3264, 3263, 3653, 3654, 3680, 3679
2939, 3238, 3239, 3265, 3264, 3654, 3655, 3681, 3680
2940, 3239, 3240, 3266, 3265, 3655, 3656, 3682, 3681
2941, 3240, 3241, 3267, 3266, 3656, 3657, 3683, 3682
2942, 3241, 3242, 3268, 3267, 3657, 3658, 3684, 3683
2943, 3242, 3243, 3269, 3268, 3658, 3659, 3685, 3684
2944, 3243, 3244, 3270, 3269, 3659, 3660, 3686, 3685
2945, 3244, 3245, 3271, 3270, 3660, 3661, 3687, 3686
2946, 3245, 3246, 3272, 3271, 3661, 3662, 3688, 3687
2947, 3246, 3247, 3273, 3272, 3662, 3663, 3689, 3688
2948, 3247, 3248, 3274, 3273, 3663, 3664, 3690, 3689
2949, 3248, 3249, 3275, 3274, 3664, 3665, 3691, 3690
2950, 3249, 3250, 3276, 3275, 3665, 3666, 3692, 3691
2951, 3251, 3252, 3278, 3277, 3667, 3668, 3694, 3693
2952, 3252, 3253, 3279, 3278, 3668, 3669, 3695, 3694
2953, 3253, 3254, 3280, 3279, 3669, 3670, 3696, 3695
2954, 3254, 3255, 3281, 3280, 3670, 3671, 3697, 3696
2955, 3255, 3256, 3282, 3281, 3671, 3672, 3698, 3697
2956, 3256, 3257, 3283, 3282, 3672, 3673, 3699, 3698
2957, 3257, 3258, 3284, 3283, 3673, 3674, 3700, 3699
2958, 3258, 3259, 3285, 3284, 3674, 3675, 3701, 3700
2959, 3259, 3260, 3286, 3285, 3675, 3676, 3702, 3701
2960, 3260, 3261, 3287, 3286, 3676, 3677, 3703, 3702
2961, 3261, 3262, 3288, 3287, 3677, 3678, 3704, 3703
2962, 3262, 3263, 3289, 3288, 3678, 3679, 3705, 3704
2963, 3263, 3264, 3290, 3289, 3679, 3680, 3706, 3705
2964, 3264, 3265, 3291, 3290, 3680, 3681, 3707, 3706
2965, 3265, 3266, 3292, 3291, 3681, 3682, 3708, 3707
2966, 3266, 3267, 3293, 3292, 3682, 3683, 3709, 3708
2967, 3267, 3268, 3294, 3293, 3683, 3684, 3710, 3709
2968, 3268, 3269, 3295, 3294, 3684, 3685, 3711, 3710
2969, 3269, 3270, 3296, 3295, 3685, 3686, 3712, 3711
2970, 3270, 3271, 3297, 3296, 3686, 3687, 3713, 3712
2971, 3271, 3272, 3298, 3297, 3687, 3688, 3714, 3713
2972, 3272, 3273, 3299, 3298, 3688, 3689, 3715, 3714
2973, 3273, 3274, 3300, 3299, 3689, 3690, 3716, 3715
2974, 3274, 3275, 3301, 3300, 3690, 3691, 3717, 3716
2975, 3275, 3276, 3302, 3301, 3691, 3692, 3718, 3717
2976, 3277, 3278, 3304, 3303, 3693, 3694, 3720, 3719
2977, 3278, 3279, 3305, 3304, 3694, 3695, 3721, 3720
2978, 3279, 3280, 3306, 3305, 3695, 3696, 3722, 3721
2979, 3280, 3281, 3307, 3306, 3696, 3697, 3723, 3722
2980, 3281, 3282, 3308, 3307, 3697, 3698, 3724, 3723
2981, 3282, 3283, 3309, 3308, 3698, 3699, 3725, 3724
2982, 3283, 3284, 3310, 3309, 3699, 3700, 3726, 3725
2983, 3284, 3285, 3311, 3310, 3700, 3701, 3727, 3726
2984, 3285, 3286, 3312, 3311, 3701, 3702, 3728, 3727
2985, 3286, 3287, 3313, 3312, 3702, 3703, 3729, 3728
2986, 3287, 3288, 3314, 3313, 3703, 3704, 3730, 3729
2987, 3288, 3289, 3315, 3314, 3704, 3705, 3731, 3730
2988, 3289, 3290, 3316, 3315, 3705, 3706, 3732, 3731
2989, 3290, 3291, 3317, 3316, 3706, 3707, 3733, 3732
2990, 3291, 3292, 3318, 3317, 3707, 3708, 3734, 3733
2991, 3292, 3293, 3319, 3318, 3708, 3709, 3735, 3734
2992, 3293, 3294, 3320, 3319, 3709, 3710, 3736, 3735
2993, 3294, 3295, 3321, 3320, 3710, 3711, 3737, 3736
2994, 3295, 3296, 3322, 3321, 3711, 3712, 3738, 3737
2995, 3296, 3297, 3323, 3322, 3712, 3713, 3739, 3738
2996, 3297, 3298, 3324, 3323, 3713, 3714, 3740, 3739
2997, 3298, 3299, 3325, 3324, 3714, 3715, 3741, 3740
2998, 3299, 3300, 3326, 3325, 3715, 3716, 3742, 3741
2999, 3300, 3301, 3327, 3326, 3716, 3717, 3743, 3742
3000, 3301, 3302, 3328, 3327, 3717, 3718, 3744, 3743
3001, 3329, 3330, 3356, 3355, 3745, 3746, 3772, 3771
3002, 3330, 3331, 3357, 3356, 3746, 3747, 3773, 3772
3003, 3331, 3332, 3358, 3357, 3747, 3748, 3774, 3773
3004, 3332, 3333, 3359, 3358, 3748, 3749, 3775, 3774
3005, 3333, 3334, 3360, 3359, 3749, 3750, 3776, 3775
3006, 3334, 3335, 3361, 3360, 3750, 3751, 3777, 3776
3007, 3335, 3336, 3362, 3361, 3751, 3752, 3778, 3777
3008, 3336, 3337, 3363, 3362, 3752, 3753, 3779, 3778
3009, 3337, 3338, 3364, 3363, 3753, 3754, 3780, 3779
3010, 3338, 3339, 3365, 3364, 3754, 3755, 3781, 3780
3011, 3339, 3340, 3366, 3365, 3755, 3756, 3782, 3781
3012, 3340, 3341, 3367, 3366, 3756, 3757, 3783, 3782
3013, 3341, 3342, 3368, 3367, 3757, 3758, 3784, 3783
3014, 3342, 3343, 3369, 3368, 3758, 3759, 3785, 3784
3015, 3343, 3344, 3370, 3369, 3759, 3760, 3786, 3785
3016, 3344, 3345, 3371, 3370, 3760, 3761, 3787, 3786
3017, 3345, 3346, 3372, 3371, 3761, 3762, 3788, 3787
3018, 3346, 3347, 3373, 3372, 3762, 3763, 3789, 3788
3019, 3347, 3348, 3374, 3373, 3763, 3764, 3790, 3789
3020, 3348, 3349, 3375, 3374, 3764, 3765, 3791, 3790
3021, 3349, 3350, 3376, 3375, 3765, 3766, 3792, 3791
3022, 3350, 3351, 3377, 3376, 3766, 3767, 3793, 3792
3023, 3351, 3352, 3378, 3377, 3767, 3768, 3794, 3793
3024, 3352, 3353, 3379, 3378, 3768, 3769, 3795, 3794
3025, 3353, 3354, 3380, 3379, 3769, 3770, 3796, 3795
3026, 3355, 3356, 3382, 3381, 3771, 3772, 3798, 3797
3027, 3356, 3357, 3383, 3382, 3772, 3773, 3799, 3798
3028, 3357, 3358, 3384, 3383, 3773, 3774, 3800, 3799
3029, 3358, 3359, 3385, 3384, 3774, 3775, 3801, 3800
3030, 3359, 3360, 3386, 3385, 3775, 3776, 3802, 3801
3031, 3360, 3361, 3387, 3386, 3776, 3777, 3803, 3802
3032, 3361, 3362, 3388, 3387, 3777, 3778, 3804, 3803
3033, 3362, 3363, 3389, 3388, 3778, 3779, 3805, 3804
3034, 3363, 3364, 3390, 3389, 3779, 3780, 3806, 3805
3035, 3364, 3365, 3391, 3390, 3780, 3781, 3807, 3806
3036, 3365, 3366, 3392, 3391, 3781, 3782, 3808, 3807
3037, 3366, 3367, 3393, 3392, 3782, 3783, 3809, 3808
3038, 3367, 3368, 3394, 3393, 3783, 3784, 3810, 3809
3039, 3368, 3369, 3395, 3394, 3784, 3785, 3811, 3810
3040, 3369, 3370, 3396, 3395, 3785, 3786, 3812, 3811
3041, 3370, 3371, 3397, 3396, 3786, 3787, 3813, 3812
3042, 3371, 3372, 3398, 3397, 3787, 3788, 3814, 3813
3043, 3372, 3373, 3399, 3398, 3788, 3789, 3815, 3814
3044, 3373, 3374, 3400, 3399, 3789, 3790, 3816, 3815
3045, 3374, 3375, 3401, 3400, 3790, 3791, 3817, 3816
3046, 3375, 3376, 3402, 3401, 3791, 3792, 3818, 3817
3047, 3376, 3377, 3403, 3402, 3792, 3793, 3819, 3818
3048, 3377, 3378, 3404, 3403, 3793, 3794, 3820, 3819
3049, 3378, 3379, 3405, 3404, 3794, 3795, 3821, 3820
3050, 3379, 3380, 3406, 3405, 3795, 3796, 3822, 3821
3051, 3381, 3382, 3408, 3407, 3797, 3798, 3824, 3823
3052, 3382, 3383, 3409, 3408, 3798, 3799, 3825, 3824
3053, 3383, 3384, 3410, 3409, 3799, 3800, 3826, 3825
3054, 3384, 3385, 3411, 3410, 3800, 3801, 3827, 3826
3055, 3385, 3386, 3412, 3411, 3801, 3802, 3828, 3827
3056, 3386, 3387, 3413, 3412, 3802, 3803, 3829, 3828
3057, 3387, 3388, 3414, 3413, 3803, 3804, 3830, 3829
3058, 3388, 3389, 3415, 3414, 3804, 3805, 3831, 3830
3059, 3389, 3390, 3416, 3415, 3805, 3806, 3832, 3831
3060, 3390, 3391, 3417, 3416, 3806, 3807, 3833, 3832
3061, 3391, 3392, 3418, 3417, 3807, 3808, 3834, 3833
3062, 3392, 3393, 3419, 3418, 3808, 3809, 3835, 3834
3063, 3393, 3394, 3420, 3419, 3809, 3810, 3836, 3835
3064, 3394, 3395, 3421, 3420, 3810, 3811, 3837, 3836
3065, 3395, 3396, 3422, 3421, 3811, 3812, 3838, 3837
3066, 3396, 3397, 3423, 3422, 3812, 3813, 3839, 3838
3067, 3397, 3398, 3424, 3423, 3813, 3814, 3840, 3839
3068, 3398, 3399, 3425, 3424, 3814, 3815, 3841, 3840
3069, 3399, 3400, 3426, 3425, 3815, 3816, 3842, 3841
3070, 3400, 3401, 3427, 3426, 3816, 3817, 3843, 3842
3071, 3401, 3402, 3428, 3427, 3817, 3818, 3844, 3843
3072, 3402, 3403, 3429, 3428, 3818, 3819, 3845, 3844
3073, 3403, 3404, 3430, 3429, 3819, 3820, 3846, 3845
3074, 3404, 3405, 3431, 3430, 3820, 3821, 3847, 3846
3075, 3405, 3406, 3432, 3431, 3821, 3822, 3848, 3847
3076, 3407, 3408, 3434, 3433, 3823, 3824, 3850, 3849
3077, 3408, 3409, 3435, 3434, 3824, 3825, 3851, 3850
3078, 3409, 3410, 3436, 3435, 3825, 3826, 3852, 3851
3079, 3410, 3411, 3437, 3436, 3826, 3827, 3853, 3852
3080, 3411, 3412, 3438, 3437, 3827, 3828, 3854, 3853
3081, 3412, 3413, 3439, 3438, 3828, 3829, 3855, 3854
3082, 3413, 3414, 3440, 3439, 3829, 3830, 3856, 3855
3083, 3414, 3415, 3441, 3440, 3830, 3831, 3857, 3856
3084, 3415, 3416, 3442, 3441, 3831, 3832, 3858, 3857
3085, 3416, 3417, 3443, 3442, 3832, 3833, 3859, 3858
3086, 3417, 3418, 3444, 3443, 3833, 3834, 3860, 3859
3087, 3418, 3419, 3445, 3444, 3834, 3835, 3861, 3860
3088, 3419, 3420, 3446, 3445, 3835, 3836, 3862, 3861
3089, 3420, 3421, 3447, 3446, 3836, 3837, 3863, 3862
3090, 3421, 3422, 3448, 3447, 3837, 3838, 3864, 3863
3091, 3422, 3423, 3449, 3448, 3838, 3839, 3865, 3864
3092, 3423, 3424, 3450, 3449, 3839, 3840, 3866, 3865
3093, 3424, 3425, 3451, 3450, 3840, 3841, 3867, 3866
3094, 3425, 3426, 3452, 3451, 3841, 3842, 3868, 3867
3095, 3426, 3427, 3453, 3452, 3842, 3843, 3869, 3868
3096, 3427, 3428, 3454, 3453, 3843, 3844, 3870, 3869
3097, 3428, 3429, 3455, 3454, 3844, 3845, 3871, 3870
3098, 3429, 3430, 3456, 3455, 3845, 3846, 3872, 3871
3099, 3430, 3431, 3457, 3456, 3846, 3847, 3873, 3872
3100, 3431, 3432, 3458, 3457, 3847, 3848, 3874, 3873
3101, 3433, 3434, 3460, 3459, 3849, 3850, 3876, 3875
3102, 3434, 3435, 3461, 3460, 3850, 3851, 3877, 3876
3103, 3435, 3436, 3462, 3461, 3851, 3852, 3878, 3877
3104, 3436, 3437, 3463, 3462, 3852, 3853, 3879, 3878
3105, 3437, 3438, 3464, 3463, 3853, 3854, 3880, 3879
3106, 3438, 3439, 3465, 3464, 3854, 3855, 3881, 3880
3107, 3439, 3440, 3466, 3465, 3855, 3856, 3882, 3881
3108, 3440, 3441, 3467, 3466, 3856, 3857, 3883, 3882
3109, 3441, 3442, 3468, 3467, 3857, 3858, 3884, 3883
3110, 3442, 3443, 3469, 3468, 3858, 3859, 3885, 3884
3111, 3443, 3444, 3470, 3469, 3859, 3860, 3886, 3885
3112, 3444, 3445, 3471, 3470, 3860, 3861, 3887, 3886
3113, 3445, 3446, 3472, 3471, 3861, 3862, 3888, 3887
3114, 3446, 3447, 3473, 3472, 3862, 3863, 3889, 3888
3115, 3447, 3448, 3474, 3473, 3863, 3864, 3890, 3889
3116, 3448, 3449, 3475, 3474, 3864, 3865, 3891, 3890
3117, 3449, 3450, 3476, 3475, 3865, 3866, 3892, 3891
3118, 3450, 3451, 3477, 3476, 3866, 3867, 3893, 3892
3119, 3451, 3452, 3478, 3477, 3867, 3868, 3894, 3893
3120, 3452, 3453, 3479, 3478, 3868, 3869, 3895, 3894
3121, 3453, 3454, 3480, 3479, 3869, 3870, 3896, 3895
3122, 3454, 3455, 3481, 3480, 3870, 3871, 3897, 3896
3123, 3455, 3456, 3482, 3481, 3871, 3872, 3898, 3897
3124, 3456, 3457, 3483, 3482, 3872, 3873, 3899, 3898
3125, 3457, 3458, 3484, 3483, 3873, 3874, 3900, 3899
3126, 3459, 3460, 3486, 3485, 3875, 3876, 3902, 3901
3127, 3460, 3461, 3487, 3486, 3876, 3877, 3903, 3902
3128, 3461, 3462, 3488, 3487, 3877, 3878, 3904, 3903
3129, 3462, 3463, 3489, 3488, 3878, 3879, 3905, 3904
3130, 3463, 3464, 3490, 3489, 3879, 3880, 3906, 3905
3131, 3464, 3465, 3491, 3490, 3880, 3881, 3907, 3906
3132, 3465, 3466, 3492, 3491, 3881, 3882, 3908, 3907
3133, 3466, 3467, 3493, 3492, 3882, 3883, 3909, 3908
3134, 3467, 3468, 3494, 3493, 3883, 3884, 3910, 3909
3135, 3468, 3469, 3495, 3494, 3884, 3885, 3911, 3910
3136, 3469, 3470, 3496, 3495, 3885, 3886, 3912, 3911
3137, 3470, 3471, 3497, 3496, 3886, 3887, 3913, 3912
3138, 3471, 3472, 3498, 3497, 3887, 3888, 3914, 3913
3139, 3472, 3473, 3499, 3498, 3888, 3889, 3915, 3914
3140, 3473, 3474, 3500, 3499, 3889, 3890, 3916, 3915
3141, 3474, 3475, 3501, 3500, 3890, 3891, 3917, 3916
3142, 3475, 3476, 3502, 3501, 3891, 3892, 3918, 3917
3143, 3476, 3477, 3503, 3502, 3892, 3893, 3919, 3918
3144, 3477, 3478, 3504, 3503, 3893, 3894, 3920, 3919
3145, 3478, 3479, 3505, 3504, 3894, 3895, 3921, 3920
3146, 3479, 3480, 3506, 3505, 3895, 3896, 3922, 3921
3147, 3480, 3481, 3507, 3506, 3896, 3897, 3923, 3922
3148, 3481, 3482, 3508, 3507, 3897, 3898, 3924, 3923
3149, 3482, 3483, 3509, 3508, 3898, 3899, 3925, 3924
3150, 3483, 3484, 3510, 3509, 3899, 3900, 3926, 3925
3151, 3485, 3486, 3512, 3511, 3901, 3902, 3928, 3927
3152, 3486, 3487, 3513, 3512, 3902, 3903, 3929, 3928
3153, 3487, 3488, 3514, 3513, 3903, 3904, 3930, 3929
3154, 3488, 3489, 3515, 3514, 3904, 3905, 3931, 3930
3155, 3489, 3490, 3516, 3515, 3905, 3906, 3932, 3931
3156, 3490, 3491, 3517, 3516, 3906, 3907, 3933, 3932
3157, 3491, 3492, 3518, 3517, 3907, 3908, 3934, 3933
3158, 3492, 3493, 3519, 3518, 3908, 3909, 3935, 3934
3159, 3493, 3494, 3520, 3519, 3909, 3910, 3936, 3935
3160, 3494, 3495, 3521, 3520, 3910, 3911, 3937, 3936
3161, 3495, 3496, 3522, 3521, 3911, 3912, 3938, 3937
3162, 3496, 3497, 3523, 3522, 3912, 3913, 3939, 3938
3163, 3497, 3498, 3524, 3523, 3913, 3914, 3940, 3939
3164, 3498, 3499, 3525, 3524, 3914, 3915, 3941, 3940
3165, 3499, 3500, 3526, 3525, 3915, 3916, 3942, 3941
3166, 3500, 3501, 3527, 3526, 3916, 3917, 3943, 3942
3167, 3501, 3502, 3528, 3527, 3917, 3918, 3944, 3943
3168, 3502, 3503, 3529, 3528, 3918, 3919, 3945, 3944
3169, 3503, 3504, 3530, 3529, 3919, 3920, 3946, 3945
3170, 3504, 3505, 3531, 3530, 3920, 3921, 3947, 3946
3171, 3505, 3506, 3532, 3531, 3921, 3922, 3948, 3947
3172, 3506, 3507, 3533, 3532, 3922, 3923, 3949, 3948
3173, 3507, 3508, 3534, 3533, 3923, 3924, 3950, 3949
3174, 3508, 3509, 3535, 3534, 3924, 3925, 3951, 3950
3175, 3509, 3510, 3536, 3535, 3925, 3926, 3952, 3951
3176, 3511, 3512, 3538, 3537, 3927, 3928, 3954, 3953
3177, 3512, 3513, 3539, 3538, 3928, 3929, 3955, 3954
3178, 3513, 3514, 3540, 3539, 3929, 3930, 3956, 3955
3179, 3514, 3515, 3541, 3540, 3930, 3931, 3957, 3956
3180, 3515, 3516, 3542, 3541, 3931, 3932, 3958, 3957
3181, 3516, 3517, 3543, 3542, 3932, 3933, 3959, 3958
3182, 3517, 3518, 3544, 3543, 3933, 3934, 3960, 3959
3183, 3518, 3519, 3545, 3544, 3934, 3935, 3961, 3960
3184, 3519, 3520, 3546, 3545, 3935, 3936, 3962, 3961
3185, 3520, 3521, 3547, 3546, 3936, 3937, 3963, 3962
3186, 3521, 3522, 3548, 3547, 3937, 3938, 3964, 3963
3187, 3522, 3523, 3549, 3548, 3938, 3939, 3965, 3964
3188, 3523, 3524, 3550, 3549, 3939, 3940, 3966, 3965
3189, 3524, 3525, 3551, 3550, 3940, 3941, 3967, 3966
3190, 3525, 3526, 3552, 3551, 3941, 3942, 3968, 3967
3191, 3526, 3527, 3553, 3552, 3942, 3943, 3969, 3968
3192, 3527, 3528, 3554, 3553, 3943, 3944, 3970, 3969
3193, 3528, 3529, 3555, 3554, 3944, 3945, 3971, 3970
3194, 3529, 3530, 3556, 3555, 3945, 3946, 3972, 3971
3195, 3530, 3531, 3557, 3556, 3946, 3947, 3973, 3972
3196, 3531, 3532, 3558, 3557, 3947, 3948, 3974, 3973
3197, 3532, 3533, 3559, 3558, 3948, 3949, 3975, 3974
3198, 3533, 3534, 3560, 3559, 3949, 3950, 3976, 3975
3199, 3534, 3535, 3561, 3560, 3950, 3951, 3977, 3976
3200, 3535, 3536, 3562, 3561, 3951, 3952, 3978, 3977
3201, 3537, 3538, 3564, 3563, 3953, 3954, 3980, 3979
3202, 3538, 3539, 3565, 3564, 3954, 3955, 3981, 3980
3203, 3539, 3540, 3566, 3565, 3955, 3956, 3982, 3981
3204, 3540, 3541, 3567, 3566, 3956, 3957, 3983, 3982
3205, 3541, 3542, 3568, 3567, 3957, 3958, 3984, 3983
3206, 3542, 3543, 3569, 3568, 3958, 3959, 3985, 3984
3207, 3543, 3544, 3570, 3569, 3959, 3960, 3986, 3985
3208, 3544, 3545, 3571, 3570, 3960, 3961, 3987, 3986
3209, 3545, 3546, 3572, 3571, 3961, 3962, 3988, 3987
3210, 3546, 3547, 3573, 3572, 3962, 3963, 3989, 3988
3211, 3547, 3548, 3574, 3573, 3963, 3964, 3990, 3989
3212, 3548, 3549, 3575, 3574, 3964, 3965, 3991, 3990
3213, 3549, 3550, 3576, 3575, 3965, 3966, 3992, 3991
3214, 3550, 3551, 3577, 3576, 3966, 3967, 3993, 3992
3215, 3551, 3552, 3578, 3577, 3967, 3968, 3994, 3993
3216, 3552, 3553, 3579, 3578, 3968, 3969, 3995, 3994
3217, 3553, 3554, 3580, 3579, 3969, 3970, 3996, 3995
3218, 3554, 3555, 3581, 3580, 3970, 3971, 3997, 3996
3219, 3555, 3556, 3582, 3581, 3971, 3972, 3998, 3997
3220, 3556, 3557, 3583, 3582, 3972, 3973, 3999, 3998
3221, 3557, 3558, 3584, 3583, 3973, 3974, 4000, 3999
3222, 3558, 3559, 3585, 3584, 3974, 3975, 4001, 4000
3223, 3559, 3560, 3586, 3585, 3975, 3976, 4002, 4001
3224, 3560, 3561, 3587, 3586, 3976, 3977, 4003, 4002
3225, 3561, 3562, 3588, 3587, 3977, 3978, 4004, 4003
3226, 3563, 3564, 3590, 3589, 3979, 3980, 4006, 4005
3227, 3564, 3565, 3591, 3590, 3980, 3981, 4007, 4006
3228, 3565, 3566, 3592, 3591, 3981, 3982, 4008, 4007
3229, 3566, 3567, 3593, 3592, 3982, 3983, 4009, 4008
3230, 3567, 3568, 3594, 3593, 3983, 3984, 4010, 4009
3231, 3568, 3569, 3595, 3594, 3984, 3985, 4011, 4010
3232, 3569, 3570, 3596, 3595, 3985, 3986, 4012, 4011
3233, 3570, 3571, 3597, 3596, 3986, 3987, 4013, 4012
3234, 3571, 3572, 3598, 3597, 3987, 3988, 4014, 4013
3235, 3572, 3573, 3599, 3598, 3988, 3989, 4015, 4014
3236, 3573, 3574, 3600, 3599, 3989, 3990, 4016, 4015
3237, 3574, 3575, 3601, 3600, 3990, 3991, 4017, 4016
3238, 3575, 3576, 3602, 3601, 3991, 3992, 4018, 4017
3239, 3576, 3577, 3603, 3602, 3992, 3993, 4019, 4018
3240, 3577, 3578, 3604, 3603, 3993, 3994, 4020, 4019
3241, 3578, 3579, 3605, 3604, 3994, 3995, 4021, 4020
3242, 3579, 3580, 3606, 3605, 3995, 3996, 4022, 4021
3243, 3580, 3581, 3607, 3606, 3996, 3997, 4023, 4022
3244, 3581, 3582, 3608, 3607, 3997, 3998, 4024, 4023
3245, 3582, 3583, 3609, 3608, 3998, 3999, 4025, 4024
3246, 3583, 3584, 3610, 3609, 3999, 4000, 4026, 4025
3247, 3584, 3585, 3611, 3610, 4000, 4001, 4027, 4026
3248, 3585, 3586, 3612, 3611, 4001, 4002, 4028, 4027
3249, 3586, 3587, 3613, 3612, 4002, 4003, 4029, 4028
3250, 3587, 3588, 3614, 3613, 4003, 4004, 4030, 4029
3251, 3589, 3590, 3616, 3615, 4005, 4006, 4032, 4031
3252, 3590, 3591, 3617, 3616, 4006, 4007, 4033, 4032
3253, 3591, 3592, 3618, 3617, 4007, 4008, 4034, 4033
3254, 3592, 3593, 3619, 3618, 4008, 4009, 4035, 4034
3255, 3593, 3594, 3620, 3619, 4009, 4010, 4036, 4035
3256, 3594, 3595, 3621, 3620, 4010, 4011, 4037, 4036
3257, 3595, 3596, 3622, 3621, 4011, 4012, 4038, 4037
3258, 3596, 3597, 3623, 3622, 4012, 4013, 4039, 4038
3259, 3597, 3598, 3624, 3623, 4013, 4014, 4040, 4039
3260, 3598, 3599, 3625, 3624, 4014, 4015, 4041, 4040
3261, 3599, 3600, 3626, 3625, 4015, 4016, 4042, 4041
3262, 3600, 3601, 3627, 3626, 4016, 4017, 4043, 4042
3263, 3601, 3602, 3628, 3627, 4017, 4018, 4044, 4043
3264, 3602, 3603, 3629, 3628, 4018, 4019, 4045, 4044
3265, 3603, 3604, 3630, 3629, 4019, 4020, 4046, 4045
3266, 3604, 3605, 3631, 3630, 4020, 4021, 4047, 4046
3267, 3605, 3606, 3632, 3631, 4021, 4022, 4048, 4047
3268, 3606, 3607, 3633, 3632, 4022, 4023, 4049, 4048
3269, 3607, 3608, 3634, 3633, 4023, 4024, 4050, 4049
3270, 3608, 3609, 3635, 3634, 4024, 4025, 4051, 4050
3271, 3609, 3610, 3636, 3635, 4025, 4026, 4052, 4051
3272, 3610, 3611, 3637, 3636, 4026, 4027, 4053, 4052
3273, 3611, 3612, 3638, 3637, 4027, 4028, 4054, 4053
3274, 3612, 3613, 3639, 3638, 4028, 4029, 4055, 4054
3275, 3613, 3614, 3640, 3639, 4029, 4030, 4056, 4055
3276, 3615, 3616, 3642, 3641, 4031, 4032, 4058, 4057
3277, 3616, 3617, 3643, 3642, 4032, 4033, 4059, 4058
3278, 3617, 3618, 3644, 3643, 4033, 4034, 4060, 4059
3279, 3618, 3619, 3645, 3644, 4034, 4035, 4061, 4060
3280, 3619, 3620, 3646, 3645, 4035, 4036, 4062, 4061
3281, 3620, 3621, 3647, 3646, 4036, 4037, 4063, 4062
3282, 3621, 3622, 3648, 3647, 4037, 4038, 4064, 4063
3283, 3622, 3623, 3649, 3648, 4038, 4039, 4065, 4064
3284, 3623, 3624, 3650, 3649, 4039, 4040, 4066, 4065
3285, 3624, 3625, 3651, 3650, 4040, 4041, 4067, 4066
3286, 3625, 3626, 3652, 3651, 4041, 4042, 4068, 4067
3287, 3626, 3627, 3653, 3652, 4042, 4043, 4069, 4068
3288, 3627, 3628, 3654, 3653, 4043, 4044, 4070, 4069
3289, 3628, 3629, 3655, 3654, 4044, 4045, 4071, 4070
3290, 3629, 3630, 3656, 3655, 4045, 4046, 4072, 4071
3291, 3630, 3631, 3657, 3656, 4046, 4047, 4073, 4072
3292, 3631, 3632, 3658, 3657, 4047, 4048, 4074, 4073
3293, 3632, 3633, 3659, 3658, 4048, 4049, 4075, 4074
3294, 3633, 3634, 3660, 3659, 4049, 4050, 4076, 4075
3295, 3634, 3635, 3661, 3660, 4050, 4051, 4077, 4076
3296, 3635, 3636, 3662, 3661, 4051, 4052, 4078, 4077
3297, 3636, 3637, 3663, 3662, 4052, 4053, 4079, 4078
3298, 3637, 3638, 3664, 3663, 4053, 4054, 4080, 4079
3299, 3638, 3639, 3665, 3664, 4054, 4055, 4081, 4080
3300, 3639, 3640, 3666, 3665, 4055, 4056, 4082, 4081
3301, 3641, 3642, 3668, 3667, 4057, 4058, 4084, 4083
3302, 3642, 3643, 3669, 3668, 4058, 4059, 4085, 4084
3303, 3643, 3644, 3670, 3669, 4059, 4060, 4086, 4085
3304, 3644, 3645, 3671, 3670, 4060, 4061, 4087, 4086
3305, 3645, 3646, 3672, 3671, 4061, 4062, 4088, 4087
3306, 3646, 3647, 3673, 3672, 4062, 4063, 4089, 4088
3307, 3647, 3648, 3674, 3673, 4063, 4064, 4090, 4089
3308, 3648, 3649, 3675, 3674, 4064, 4065, 4091, 4090
3309, 3649, 3650, 3676, 3675, 4065, 4066, 4092, 4091
3310, 3650, 3651, 3677, 3676, 4066, 4067, 4093, 4092
3311, 3651, 3652, 3678, 3677, 4067, 4068, 4094, 4093
3312, 3652, 3653, 3679, 3678, 4068, 4069, 4095, 4094
3313, 3653, 3654, 3680, 3679, 4069, 4070, 4096, 4095
3314, 3654, 3655, 3681, 3680, 4070, 4071, 4097, 4096
3315, 3655, 3656, 3682, 3681, 4071, 4072, 4098, 4097
3316, 3656, 3657, 3683, 3682, 4072, 4073, 4099, 4098
3317, 3657, 3658, 3684, 3683, 4073, 4074, 4100, 4099
3318, 3658, 3659, 3685, 3684, 4074, 4075, 4101, 4100
3319, 3659, 3660, 3686, 3685, 4075, 4076, 4102, 4101
3320, 3660, 3661, 3687, 3686, 4076, 4077, 4103, 4102
3321, 3661, 3662, 3688, 3687, 4077, 4078, 4104, 4103
3322, 3662, 3663, 3689, 3688, 4078, 4079, 4105, 4104
3323, 3663, 3664, 3690, 3689, 4079, 4080, 4106, 4105
3324, 3664, 3665, 3691, 3690, 4080, 4081, 4107, 4106
3325, 3665, 3666, 3692, 3691, 4081, 4082, 4108, 4107
3326, 3667, 3668, 3694, 3693, 4083, 4084, 4110, 4109
3327, 3668, 3669, 3695, 3694, 4084, 4085, 4111, 4110
3328, 3669, 3670, 3696, 3695, 4085, 4086, 4112, 4111
3329, 3670, 3671, 3697, 3696, 4086, 4087, 4113, 4112
3330, 3671, 3672, 3698, 3697, 4087, 4088, 4114, 4113
3331, 3672, 3673, 3699, 3698, 4088, 4089, 4115, 4114
3332, 3673, 3674, 3700, 3699, 4089, 4090, 4116, 4115
3333, 3674, 3675, 3701, 3700, 4090, 4091, 4117, 4116
3334, 3675, 3676, 3702, 3701, 4091, 4092, 4118, 4117
3335, 3676, 3677, 3703, 3702, 4092, 4093, 4119, 4118
3336, 3677, 3678, 3704, 3703, 4093, 4094, 4120, 4119
3337, 3678, 3679, 3705, 3704, 4094, 4095, 4121, 4120
3338, 3679, 3680, 3706, 3705, 4095, 4096, 4122, 4121
3339, 3680, 3681, 3707, 3706, 4096, 4097, 4123, 4122
3340, 3681, 3682, 3708, 3707, 4097, 4098, 4124, 4123
3341, 3682, 3683, 3709, 3708, 4098, 4099, 4125, 4124
3342, 3683, 3684, 3710, 3709, 4099, 4100, 4126, 4125
3343, 3684, 3685, 3711, 3710, 4100, 4101, 4127, 4126
3344, 3685, 3686, 3712, 3711, 4101, 4102, 4128, 4127
3345, 3686, 3687, 3713, 3712, 4102, 4103, 4129, 4128
3346, 3687, 3688, 3714, 3713, 4103, 4104, 4130, 4129
3347, 3688, 3689, 3715, 3714, 4104, 4105, 4131, 4130
3348, 3689, 3690, 3716, 3715, 4105, 4106, 4132, 4131
3349, 3690, 3691, 3717, 3716, 4106, 4107, 4133, 4132
3350, 3691, 3692, 3718, 3717, 4107, 4108, 4134, 4133
3351, 3693, 3694, 3720, 3719, 4109, 4110, 4136, 4135
3352, 3694, 3695, 3721, 3720, 4110, 4111, 4137, 4136
3353, 3695, 3696, 3722, 3721, 4111, 4112, 4138, 4137
3354, 3696, 3697, 3723, 3722, 4112, 4113, 4139, 4138
3355, 3697, 3698, 3724, 3723, 4113, 4114, 4140, 4139
3356, 3698, 3699, 3725, 3724, 4114, 4115, 4141, 4140
3357, 3699, 3700, 3726, 3725, 4115, 4116, 4142, 4141
3358, 3700, 3701, 3727, 3726, 4116, 4117, 4143, 4142
3359, 3701, 3702, 3728, 3727, 4117, 4118, 4144, 4143
3360, 3702, 3703, 3729, 3728, 4118, 4119, 4145, 4144
3361, 3703, 3704, 3730, 3729, 4119, 4120, 4146, 4145
3362, 3704, 3705, 3731, 3730, 4120, 4121, 4147, 4146
3363, 3705, 3706, 3732, 3731, 4121, 4122, 4148, 4147
3364, 3706, 3707, 3733, 3732, 4122, 4123, 4149, 4148
3365, 3707, 3708, 3734, 3733, 4123, 4124, 4150, 4149
3366, 3708, 3709, 3735, 3734, 4124, 4125, 4151, 4150
3367, 3709, 3710, 3736, 3735, 4125, 4126, 4152, 4151
3368, 3710, 3711, 3737, 3736, 4126, 4127, 4153, 4152
3369, 3711, 3712, 3738, 3737, 4127, 4128, 4154, 4153
3370, 3712, 3713, 3739, 3738, 4128, 4129, 4155, 4154
3371, 3713, 3714, 3740, 3739, 4129, 4130, 4156, 4155
3372, 3714, 3715, 3741, 3740, 4130, 4131, 4157, 4156
3373, 3715, 3716, 3742, 3741, 4131, 4132, 4158, 4157
3374, 3716, 3717, 3743, 3742, 4132, 4133, 4159, 4158
3375, 3717, 3718, 3744, 3743, 4133, 4134, 4160, 4159
3376, 3745, 3746, 3772, 3771, 4161, 4162, 4188, 4187
3377, 3746, 3747, 3773, 3772, 4162, 4163, 4189, 4188
3378, 3747, 3748, 3774, 3773, 4163, 4164, 4190, 4189
3379, 3748, 3749, 3775, 3774, 4164, 4165, 4191, 4190
3380, 3749, 3750, 3776, 3775, 4165, 4166, 4192, 4191
3381, 3750, 3751, 3777, 3776, 4166, 4167, 4193, 4192
3382, 3751, 3752, 3778, 3777, 4167, 4168, 4194, 4193
3383, 3752, 3753, 3779, 3778, 4168, 4169, 4195, 4194
3384, 3753, 3754, 3780, 3779, 4169, 4170, 4196, 4195
3385, 3754, 3755, 3781, 3780, 4170, 4171, 4197, 4196
3386, 3755, 3756, 3782, 3781, 4171, 4172, 4198, 4197
3387, 3756, 3757, 3783, 3782, 4172, 4173, 4199, 4198
3388, 3757, 3758, 3784, 3783, 4173, 4174, 4200, 4199
3389, 3758, 3759, 3785, 3784, 4174, 4175, 4201, 4200
3390, 3759, 3760, 3786, 3785, 4175, 4176, 4202, 4201
3391, 3760, 3761, 3787, 3786, 4176, 4177, 4203, 4202
3392, 3761, 3762, 3788, 3787, 4177, 4178, 4204, 4203
3393, 3762, 3763, 3789, 3788, 4178, 4179, 4205, 4204
3394, 3763, 3764, 3790, 3789, 4179, 4180, 4206, 4205
3395, 3764, 3765, 3791, 3790, 4180, 4181, 4207, 4206
3396, 3765, 3766, 3792, 3791, 4181, 4182, 4208, 4207
3397, 3766, 3767, 3793, 3792, 4182, 4183, 4209, 4208
3398, 3767, 3768, 3794, 3793, 4183, 4184, 4210, 4209
3399, 3768, 3769, 3795, 3794, 4184, 4185, 4211, 4210
3400, 3769, 3770, 3796, 3795, 4185, 4186, 4212, 4211
3401, 3771, 3772, 3798, 3797, 4187, 4188, 4214, 4213
3402, 3772, 3773, 3799, 3798, 4188, 4189, 4215, 4214
3403, 3773, 3774, 3800, 3799, 4189, 4190, 4216, 4215
3404, 3774, 3775, 3801, 3800, 4190, 4191, 4217, 4216
3405, 3775, 3776, 3802, 3801, 4191, 4192, 4218, 4217
3406, 3776, 3777, 3803, 3802, 4192, 4193, 4219, 4218
3407, 3777, 3778, 3804, 3803, 4193, 4194, 4220, 4219
3408, 3778, 3779, 3805, 3804, 4194, 4195, 4221, 4220
3409, 3779, 3780, 3806, 3805, 4195, 4196, 4222, 4221
3410, 3780, 3781, 3807, 3806, 4196, 4197, 4223, 4222
3411, 3781, 3782, 3808, 3807, 4197, 4198, 4224, 4223
3412, 3782, 3783, 3809, 3808, 4198, 4199, 4225, 4224
3413, 3783, 3784, 3810, 3809, 4199, 4200, 4226, 4225
3414, 3784, 3785, 3811, 3810, 4200, 4201, 4227, 4226
3415, 3785, 3786, 3812, 3811, 4201, 4202, 4228, 4227
3416, 3786, 3787, 3813, 3812, 4202, 4203, 4229, 4228
3417, 3787, 3788, 3814, 3813, 4203, 4204, 4230, 4229
3418, 3788, 3789, 3815, 3814, 4204, 4205, 4231, 4230
3419, 3789, 3790, 3816, 3815, 4205, 4206, 4232, 4231
3420, 3790, 3791, 3817, 3816, 4206, 4207, 4233, 4232
3421, 3791, 3792, 3818, 3817, 4207, 4208, 4234, 4233
3422, 3792, 3793, 3819, 3818, 4208, 4209, 4235, 4234
3423, 3793, 3794, 3820, 3819, 4209, 4210, 4236, 4235
3424, 3794, 3795, 3821, 3820, 4210, 4211, 4237, 4236
3425, 3795, 3796, 3822, 3821, 4211, 4212, 4238, 4237
3426, 3797, 3798, 3824, 3823, 4213, 4214, 4240, 4239
3427, 3798, 3799, 3825, 3824, 4214, 4215, 4241, 4240
3428, 3799, 3800, 3826, 3825, 4215, 4216, 4242, 4241
3429, 3800, 3801, 3827, 3826, 4216, 4217, 4243, 4242
3430, 3801, 3802, 3828, 3827, 4217, 4218, 4244, 4243
3431, 3802, 3803, 3829, 3828, 4218, 4219, 4245, 4244
3432, 3803, 3804, 3830, 3829, 4219, 4220, 4246, 4245
3433, 3804, 3805, 3831, 3830, 4220, 4221, 4247, 4246
3434, 3805, 3806, 3832, 3831, 4221, 4222, 4248, 4247
3435, 3806, 3807, 3833, 3832, 4222, 4223, 4249, 4248
3436, 3807, 3808, 3834, 3833, 4223, 4224, 4250, 4249
3437, 3808, 3809, 3835, 3834, 4224, 4225, 4251, 4250
3438, 3809, 3810, 3836, 3835, 4225, 4226, 4252, 4251
3439, 3810, 3811, 3837, 3836, 4226, 4227, 4253, 4252
3440, 3811, 3812, 3838, 3837, 4227, 4228, 4254, 4253
3441, 3812, 3813, 3839, 3838, 4228, 4229, 4255, 4254
3442, 3813, 3814, 3840, 3839, 4229, 4230, 4256, 4255
3443, 3814, 3815, 3841, 3840, 4230, 4231, 4257, 4256
3444, 3815, 3816, 3842, 3841, 4231, 4232, 4258, 4257
3445, 3816, 3817, 3843, 3842, 4232, 4233, 4259, 4258
3446, 3817, 3818, 3844, 3843, 4233, 4234, 4260, 4259
3447, 3818, 3819, 3845, 3844, 4234, 4235, 4261, 4260
3448, 3819, 3820, 3846, 3845, 4235, 4236, 4262, 4261
3449, 3820, 3821, 3847, 3846, 4236, 4237, 4263, 4262
3450, 3821, 3822, 3848, 3847, 4237, 4238, 4264, 4263
3451, 3823, 3824, 3850, 3849, 4239, 4240, 4266, 4265
3452, 3824, 3825, 3851, 3850, 4240, 4241, 4267, 4266
3453, 3825, 3826, 3852, 3851, 4241, 4242, 4268, 4267
3454, 3826, 3827, 3853, 3852, 4242, 4243, 4269, 4268
3455, 3827, 3828, 3854, 3853, 4243, 4244, 4270, 4269
3456, 3828, 3829, 3855, 3854, 4244, 4245, 4271, 4270
3457, 3829, 3830, 3856, 3855, 4245, 4246, 4272, 4271
3458, 3830, 3831, 3857, 3856, 4246, 4247, 4273, 4272
3459, 3831, 3832, 3858, 3857, 4247, 4248, 4274, 4273
3460, 3832, 3833, 3859, 3858, 4248, 4249, 4275, 4274
3461, 3833, 3834, 3860, 3859, 4249, 4250, 4276, 4275
3462, 3834, 3835, 3861, 3860, 4250, 4251, 4277, 4276
3463, 3835, 3836, 3862, 3861, 4251, 4252, 4278, 4277
3464, 3836, 3837, 3863, 3862, 4252, 4253, 4279, 4278
3465, 3837, 3838, 3864, 3863, 4253, 4254, 4280, 4279
3466, 3838, 3839, 3865, 3864, 4254, 4255, 4281, 4280
3467, 3839, 3840, 3866, 3865, 4255, 4256, 4282, 4281
3468, 3840, 3841, 3867, 3866, 4256, 4257, 4283, 4282
3469, 3841, 3842, 3868, 3867, 4257, 4258, 4284, 4283
3470, 3842, 3843, 3869, 3868, 4258, 4259, 4285, 4284
3471, 3843, 3844, 3870, 3869, 4259, 4260, 4286, 4285
3472, 3844, 3845, 3871, 3870, 4260, 4261, 4287, 4286
3473, 3845, 3846, 3872, 3871, 4261, 4262, 4288, 4287
3474, 3846, 3847, 3873, 3872, 4262, 4263, 4289, 4288
3475, 3847, 3848, 3874, 3873, 4263, 4264, 4290, 4289
3476, 3849, 3850, 3876, 3875, 4265, 4266, 4292, 4291
3477, 3850, 3851, 3877, 3876, 4266, 4267, 4293, 4292
3478, 3851, 3852, 3878, 3877, 4267, 4268, 4294, 4293
3479, 3852, 3853, 3879, 3878, 4268, 4269, 4295, 4294
3480, 3853, 3854, 3880, 3879, 4269, 4270, 4296, 4295
3481, 3854, 3855, 3881, 3880, 4270, 4271, 4297, 4296
3482, 3855, 3856, 3882, 3881, 4271, 4272, 4298, 4297
3483, 3856, 3857, 3883, 3882, 4272, 4273, 4299, 4298
3484, 3857, 3858, 3884, 3883, 4273, 4274, 4300, 4299
3485, 3858, 3859, 3885, 3884, 4274, 4275, 4301, 4300
3486, 3859, 3860, 3886, 3885, 4275, 4276, 4302, 4301
3487, 3860, 3861, 3887, 3886, 4276, 4277, 4303, 4302
3488, 3861, 3862, 3888, 3887, 4277, 4278, 4304, 4303
3489, 3862, 3863, 3889, 3888, 4278, 4279, 4305, 4304
3490, 3863, 3864, 3890, 3889, 4279, 4280, 4306, 4305
3491, 3864, 3865, 3891, 3890, 4280, 4281, 4307, 4306
3492, 3865, 3866, 3892, 3891, 4281, 4282, 4308, 4307
3493, 3866, 3867, 3893, 3892, 4282, 4283, 4309, 4308
3494, 3867, 3868, 3894, 3893, 4283, 4284, 4310, 4309
3495, 3868, 3869, 3895, 3894, 4284, 4285, 4311, 4310
3496, 3869, 3870, 3896, 3895, 4285, 4286, 4312, 4311
3497, 3870, 3871, 3897, 3896, 4286, 4287, 4313, 4312
3498, 3871, 3872, 3898, 3897, 4287, 4288, 4314, 4313
3499, 3872, 3873, 3899, 3898, 4288, 4289, 4315, 4314
3500, 3873, 3874, 3900, 3899, 4289, 4290, 4316, 4315
3501, 3875, 3876, 3902, 3901, 4291, 4292, 4318, 4317
3502, 3876, 3877, 3903, 3902, 4292, 4293, 4319, 4318
3503, 3877, 3878, 3904, 3903, 4293, 4294, 4320, 4319
3504, 3878, 3879, 3905, 3904, 4294, 4295, 4321, 4320
3505, 3879, 3880, 3906, 3905, 4295, 4296, 4322, 4321
3506, 3880, 3881, 3907, 3906, 4296, 4297, 4323, 4322
3507, 3881, 3882, 3908, 3907, 4297, 4298, 4324, 4323
3508, 3882, 3883, 3909, 3908, 4298, 4299, 4325, 4324
3509, 3883, 3884, 3910, 3909, 4299, 4300, 4326, 4325
3510, 3884, 3885, 3911, 3910, 4300, 4301, 4327, 4326
3511, 3885, 3886, 3912, 3911, 4301, 4302, 4328, 4327
3512, 3886, 3887, 3913, 3912, 4302, 4303, 4329, 4328
3513, 3887, 3888, 3914, 3913, 4303, 4304, 4330, 4329
3514, 3888, 3889, 3915, 3914, 4304, 4305, 4331, 4330
3515, 3889, 3890, 3916, 3915, 4305, 4306, 4332, 4331
3516, 3890, 3891, 3917, 3916, 4306, 4307, 4333, 4332
3517, 3891, 3892, 3918, 3917, 4307, 4308, 4334, 4333
3518, 3892, 3893, 3919, 3918, 4308, 4309, 4335, 4334
3519, 3893, 3894, 3920, 3919, 4309, 4310, 4336, 4335
3520, 3894, 3895, 3921, 3920, 4310, 4311, 4337, 4336
3521, 3895, 3896, 3922, 3921, 4311, 4312, 4338, 4337
3522, 3896, 3897, 3923, 3922, 4312, 4313, 4339, 4338
3523, 3897, 3898, 3924, 3923, 4313, 4314, 4340, 4339
3524, 3898, 3899, 3925, 3924, 4314, 4315, 4341, 4340
3525, 3899, 3900, 3926, 3925, 4315, 4316, 4342, 4341
3526, 3901, 3902, 3928, 3927, 4317, 4318, 4344, 4343
3527, 3902, 3903, 3929, 3928, 4318, 4319, 4345, 4344
3528, 3903, 3904, 3930, 3929, 4319, 4320, 4346, 4345
3529, 3904, 3905, 3931, 3930, 4320, 4321, 4347, 4346
3530, 3905, 3906, 3932, 3931, 4321, 4322, 4348, 4347
3531, 3906, 3907, 3933, 3932, 4322, 4323, 4349, 4348
3532, 3907, 3908, 3934, 3933, 4323, 4324, 4350, 4349
3533, 3908, 3909, 3935, 3934, 4324, 4325, 4351, 4350
3534, 3909, 3910, 3936, 3935, 4325, 4326, 4352, 4351
3535, 3910, 3911, 3937, 3936, 4326, 4327, 4353, 4352
3536, 3911, 3912, 3938, 3937, 4327, 4328, 4354, 4353
3537, 3912, 3913, 3939, 3938, 4328, 4329, 4355, 4354
3538, 3913, 3914, 3940, 3939, 4329, 4330, 4356, 4355
3539, 3914, 3915, 3941, 3940, 4330, 4331, 4357, 4356
3540, 3915, 3916, 3942, 3941, 4331, 4332, 4358, 4357
3541, 3916, 3917, 3943, 3942, 4332, 4333, 4359, 4358
3542, 3917, 3918, 3944, 3943, 4333, 4334, 4360, 4359
3543, 3918, 3919, 3945, 3944, 4334, 4335, 4361, 4360
3544, 3919, 3920, 3946, 3945, 4335, 4336, 4362, 4361
3545, 3920, 3921, 3947, 3946, 4336, 4337, 4363, 4362
3546, 3921, 3922, 3948, 3947, 4337, 4338, 4364, 4363
3547, 3922, 3923, 3949, 3948, 4338, 4339, 4365, 4364
3548, 3923, 3924, 3950, 3949, 4339, 4340, 4366, 4365
3549, 3924, 3925, 3951, 3950, 4340, 4341, 4367, 4366
3550, 3925, 3926, 3952, 3951, 4341, 4342, 4368, 4367
3551, 3927, 3928, 3954, 3953, 4343, 4344, 4370, 4369
3552, 3928, 3929, 3955, 3954, 4344, 4345, 4371, 4370
3553, 3929, 3930, 3956, 3955, 4345, 4346, 4372, 4371
3554, 3930, 3931, 3957, 3956, 4346, 4347, 4373, 4372
3555, 3931, 3932, 3958, 3957, 4347, 4348, 4374, 4373
3556, 3932, 3933, 3959, 3958, 4348, 4349, 4375, 4374
3557, 3933, 3934, 3960, 3959, 4349, 4350, 4376, 4375
3558, 3934, 3935, 3961, 3960, 4350, 4351, 4377, 4376
3559, 3935, 3936, 3962, 3961, 4351, 4352, 4378, 4377
3560, 3936, 3937, 3963, 3962, 4352, 4353, 4379, 4378
3561, 3937, 3938, 3964, 3963, 4353, 4354, 4380, 4379
3562, 3938, 3939, 3965, 3964, 4354, 4355, 4381, 4380
3563, 3939, 3940, 3966, 3965, 4355, 4356, 4382, 4381
3564, 3940, 3941, 3967, 3966, 4356, 4357, 4383, 4382
3565, 3941, 3942, 3968, 3967, 4357, 4358, 4384, 4383
3566, 3942, 3943, 3969, 3968, 4358, 4359, 4385, 4384
3567, 3943, 3944, 3970, 3969, 4359, 4360, 4386, 4385
3568, 3944, 3945, 3971, 3970, 4360, 4361, 4387, 4386
3569, 3945, 3946, 3972, 3971, 4361, 4362, 4388, 4387
3570, 3946, 3947, 3973, 3972, 4362, 4363, 4389, 4388
3571, 3947, 3948, 3974, 3973, 4363, 4364, 4390, 4389
3572, 3948, 3949, 3975, 3974, 4364, 4365, 4391, 4390
3573, 3949, 3950, 3976, 3975, 4365, 4366, 4392, 4391
3574, 3950, 3951, 3977, 3976, 4366, 4367, 4393, 4392
3575, 3951, 3952, 3978, 3977, 4367, 4368, 4394, 4393
3576, 3953, 3954, 3980, 3979, 4369, 4370, 4396, 4395
3577, 3954, 3955, 3981, 3980, 4370, 4371, 4397, 4396
3578, 3955, 3956, 3982, 3981, 4371, 4372, 4398, 4397
3579, 3956, 3957, 3983, 3982, 4372, 4373, 4399, 4398
3580, 3957, 3958, 3984, 3983, 4373, 4374, 4400, 4399
3581, 3958, 3959, 3985, 3984, 4374, 4375, 4401, 4400
3582, 3959, 3960, 3986, 3985, 4375, 4376, 4402, 4401
3583, 3960, 3961, 3987, 3986, 4376, 4377, 4403, 4402
3584, 3961, 3962, 3988, 3987, 4377, 4378, 4404, 4403
3585, 3962, 3963, 3989, 3988, 4378, 4379, 4405, 4404
3586, 3963, 3964, 3990, 3989, 4379, 4380, 4406, 4405
3587, 3964, 3965, 3991, 3990, 4380, 4381, 4407, 4406
3588, 3965, 3966, 3992, 3991, 4381, 4382, 4408, 4407
3589, 3966, 3967, 3993, 3992, 4382, 4383, 4409, 4408
3590, 3967, 3968, 3994, 3993, 4383, 4384, 4410, 4409
3591, 3968, 3969, 3995, 3994, 4384, 4385, 4411, 4410
3592, 3969, 3970, 3996, 3995, 4385, 4386, 4412, 4411
3593, 3970, 3971, 3997, 3996, 4386, 4387, 4413, 4412
3594, 3971, 3972, 3998, 3997, 4387, 4388, 4414, 4413
3595, 3972, 3973, 3999, 3998, 4388, 4389, 4415, 4414
3596, 3973, 3974, 4000, 3999, 4389, 4390, 4416, 4415
3597, 3974, 3975, 4001, 4000, 4390, 4391, 4417, 4416
3598, 3975, 3976, 4002, 4001, 4391, 4392, 4418, 4417
3599, 3976, 3977, 4003, 4002, 4392, 4393, 4419, 4418
3600, 3977, 3978, 4004, 4003, 4393, 4394, 4420, 4419
3601, 3979, 3980, 4006, 4005, 4395, 4396, 4422, 4421
3602, 3980, 3981, 4007, 4006, 4396, 4397, 4423, 4422
3603, 3981, 3982, 4008, 4007, 4397, 4398, 4424, 4423
3604, 3982, 3983, 4009, 4008, 4398, 4399, 4425, 4424
3605, 3983, 3984, 4010, 4009, 4399, 4400, 4426, 4425
3606, 3984, 3985, 4011, 4010, 4400, 4401, 4427, 4426
3607, 3985, 3986, 4012, 4011, 4401, 4402, 4428, 4427
3608, 3986, 3987, 4013, 4012, 4402, 4403, 4429, 4428
3609, 3987, 3988, 4014, 4013, 4403, 4404, 4430, 4429
3610, 3988, 3989, 4015, 4014, 4404, 4405, 4431, 4430
3611, 3989, 3990, 4016, 4015, 4405, 4406, 4432, 4431
3612, 3990, 3991, 4017, 4016, 4406, 4407, 4433, 4432
3613, 3991, 3992, 4018, 4017, 4407, 4408, 4434, 4433
3614, 3992, 3993, 4019, 4018, 4408, 4409, 4435, 4434
3615, 3993, 3994, 4020, 4019, 4409, 4410, 4436, 4435
3616, 3994, 3995, 4021, 4020, 4410, 4411, 4437, 4436
3617, 3995, 3996, 4022, 4021, 4411, 4412, 4438, 4437
3618, 3996, 3997, 4023, 4022, 4412, 4413, 4439, 4438
3619, 3997, 3998, 4024, 4023, 4413, 4414, 4440, 4439
3620, 3998, 3999, 4025, 4024, 4414, 4415, 4441, 4440
3621, 3999, 4000, 4026, 4025, 4415, 4416, 4442, 4441
3622, 4000, 4001, 4027, 4026, 4416, 4417, 4443, 4442
3623, 4001, 4002, 4028, 4027, 4417, 4418, 4444, 4443
3624, 4002, 4003, 4029, 4028, 4418, 4419, 4445, 4444
3625, 4003, 4004, 4030, 4029, 4419, 4420, 4446, 4445
3626, 4005, 4006, 4032, 4031, 4421, 4422, 4448, 4447
3627, 4006, 4007, 4033, 4032, 4422, 4423, 4449, 4448
3628, 4007, 4008, 4034, 4033, 4423, 4424, 4450, 4449
3629, 4008, 4009, 4035, 4034, 4424, 4425, 4451, 4450
3630, 4009, 4010, 4036, 4035, 4425, 4426, 4452, 4451
3631, 4010, 4011, 4037, 4036, 4426, 4427, 4453, 4452
3632, 4011, 4012, 4038, 4037, 4427, 4428, 4454, 4453
3633, 4012, 4013, 4039, 4038, 4428, 4429, 4455, 4454
3634, 4013, 4014, 4040, 4039, 4429, 4430, 4456, 4455
3635, 4014, 4015, 4041, 4040, 4430, 4431, 4457, 4456
3636, 4015, 4016, 4042, 4041, 4431, 4432, 4458, 4457
3637, 4016, 4017, 4043, 4042, 4432, 4433, 4459, 4458
3638, 4017, 4018, 4044, 4043, 4433, 4434, 4460, 4459
3639, 4018, 4019, 4045, 4044, 4434, 4435, 4461, 4460
3640, 4019, 4020, 4046, 4045, 4435, 4436, 4462, 4461
3641, 4020, 4021, 4047, 4046, 4436, 4437, 4463, 4462
3642, 4021, 4022, 4048, 4047, 4437, 4438, 4464, 4463
3643, 4022, 4023, 4049, 4048, 4438, 4439, 4465, 4464
3644, 4023, 4024, 4050, 4049, 4439, 4440, 4466, 4465
3645, 4024, 4025, 4051, 4050, 4440, 4441, 4467, 4466
3646, 4025, 4026, 4052, 4051, 4441, 4442, 4468, 4467
3647, 4026, 4027, 4053, 4052, 4442, 4443, 4469, 4468
3648, 4027, 4028, 4054, 4053, 4443, 4444, 4470, 4469
3649, 4028, 4029, 4055, 4054, 4444, 4445, 4471, 4470
3650, 4029, 4030, 4056, 4055, 4445, 4446, 4472, 4471
3651, 4031, 4032, 4058, 4057, 4447, 4448, 4474, 4473
3652, 4032, 4033, 4059, 4058, 4448, 4449, 4475, 4474
3653, 4033, 4034, 4060, 4059, 4449, 4450, 4476, 4475
3654, 4034, 4035, 4061, 4060, 4450, 4451, 4477, 4476
3655, 4035, 4036, 4062, 4061, 4451, 4452, 4478, 4477
3656, 4036, 4037, 4063, 4062, 4452, 4453, 4479, 4478
3657, 4037, 4038, 4064, 4063, 4453, 4454, 4480, 4479
3658, 4038, 4039, 4065, 4064, 4454, 4455, 4481, 4480
3659, 4039, 4040, 4066, 4065, 4455, 4456, 4482, 4481
3660, 4040, 4041, 4067, 4066, 4456, 4457, 4483, 4482
3661, 4041, 4042, 4068, 4067, 4457, 4458, 4484, 4483
3662, 4042, 4043, 4069, 4068, 4458, 4459, 4485, 4484
3663, 4043, 4044, 4070, 4069, 4459, 4460, 4486, 4485
3664, 4044, 4045, 4071, 4070, 4460, 4461, 4487, 4486
3665, 4045, 4046, 4072, 4071, 4461, 4462, 4488, 4487
3666, 4046, 4047, 4073, 4072, 4462, 4463, 4489, 4488
3667, 4047, 4048, 4074, 4073, 4463, 4464, 4490, 4489
3668, 4048, 4049, 4075, 4074, 4464, 4465, 4491, 4490
3669, 4049, 4050, 4076, 4075, 4465, 4466, 4492, 4491
3670, 4050, 4051, 4077, 4076, 4466, 4467, 4493, 4492
3671, 4051, 4052, 4078, 4077, 4467, 4468, 4494, 4493
3672, 4052, 4053, 4079, 4078, 4468, 4469, 4495, 4494
3673, 4053, 4054, 4080, 4079, 4469, 4470, 4496, 4495
3674, 4054, 4055, 4081, 4080, 4470, 4471, 4497, 4496
3675, 4055, 4056, 4082, 4081, 4471, 4472, 4498, 4497
3676, 4057, 4058, 4084, 4083, 4473, 4474, 4500, 4499
3677, 4058, 4059, 4085, 4084, 4474, 4475, 4501, 4500
3678, 4059, 4060, 4086, 4085, 4475, 4476, 4502, 4501
3679, 4060, 4061, 4087, 4086, 4476, 4477, 4503, 4502
3680, 4061, 4062, 4088, 4087, 4477, 4478, 4504, 4503
3681, 4062, 4063, 4089, 4088, 4478, 4479, 4505, 4504
3682, 4063, 4064, 4090, 4089, 4479, 4480, 4506, 4505
3683, 4064, 4065, 4091, 4090, 4480, 4481, 4507, 4506
3684, 4065, 4066, 4092, 4091, 4481, 4482, 4508, 4507
3685, 4066, 4067, 4093, 4092, 4482, 4483, 4509, 4508
3686, 4067, 4068, 4094, 4093, 4483, 4484, 4510, 4509
3687, 4068, 4069, 4095, 4094, 4484, 4485, 4511, 4510
3688, 4069, 4070, 4096, 4095, 4485, 4486, 4512, 4511
3689, 4070, 4071, 4097, 4096, 4486, 4487, 4513, 4512
3690, 4071, 4072, 4098, 4097, 4487, 4488, 4514, 4513
3691, 4072, 4073, 4099, 4098, 4488, 4489, 4515, 4514
3692, 4073, 4074, 4100, 4099, 4489, 4490, 4516, 4515
3693, 4074, 4075, 4101, 4100, 4490, 4491, 4517, 4516
3694, 4075, 4076, 4102, 4101, 4491, 4492, 4518, 4517
3695, 4076, 4077, 4103, 4102, 4492, 4493, 4519, 4518
3696, 4077, 4078, 4104, 4103, 4493, 4494, 4520, 4519
3697, 4078, 4079, 4105, 4104, 4494, 4495, 4521, 4520
3698, 4079, 4080, 4106, 4105, 4495, 4496, 4522, 4521
3699, 4080, 4081, 4107, 4106, 4496, 4497, 4523, 4522
3700, 4081, 4082, 4108, 4107, 4497, 4498, 4524, 4523
3701, 4083, 4084, 4110, 4109, 4499, 4500, 4526, 4525
3702, 4084, 4085, 4111, 4110, 4500, 4501, 4527, 4526
3703, 4085, 4086, 4112, 4111, 4501, 4502, 4528, 4527
3704, 4086, 4087, 4113, 4112, 4502, 4503, 4529, 4528
3705, 4087, 4088, 4114, 4113, 4503, 4504, 4530, 4529
3706, 4088, 4089, 4115, 4114, 4504, 4505, 4531, 4530
3707, 4089, 4090, 4116, 4115, 4505, 4506, 4532, 4531
3708, 4090, 4091, 4117, 4116, 4506, 4507, 4533, 4532
3709, 4091, 4092, 4118, 4117, 4507, 4508, 4534, 4533
3710, 4092, 4093, 4119, 4118, 4508, 4509, 4535, 4534
3711, 4093, 4094, 4120, 4119, 4509, 4510, 4536, 4535
3712, 4094, 4095, 4121, 4120, 4510, 4511, 4537, 4536
3713, 4095, 4096, 4122, 4121, 4511, 4512, 4538, 4537
3714, 4096, 4097, 4123, 4122, 4512, 4513, 4539, 4538
3715, 4097, 4098, 4124, 4123, 4513, 4514, 4540, 4539
3716, 4098, 4099, 4125, 4124, 4514, 4515, 4541, 4540
3717, 4099, 4100, 4126, 4125, 4515, 4516, 4542, 4541
3718, 4100, 4101, 4127, 4126, 4516, 4517, 4543, 4542
3719, 4101, 4102, 4128, 4127, 4517, 4518, 4544, 4543
3720, 4102, 4103, 4129, 4128, 4518, 4519, 4545, 4544
3721, 4103, 4104, 4130, 4129, 4519, 4520, 4546, 4545
3722, 4104, 4105, 4131, 4130, 4520, 4521, 4547, 4546
3723, 4105, 4106, 4132, 4131, 4521, 4522, 4548, 4547
3724, 4106, 4107, 4133, 4132, 4522, 4523, 4549, 4548
3725, 4107, 4108, 4134, 4133, 4523, 4524, 4550, 4549
3726, 4109, 4110, 4136, 4135, 4525, 4526, 4552, 4551
3727, 4110, 4111, 4137, 4136, 4526, 4527, 4553, 4552
3728, 4111, 4112, 4138, 4137, 4527, 4528, 4554, 4553
3729, 4112, 4113, 4139, 4138, 4528, 4529, 4555, 4554
3730, 4113, 4114, 4140, 4139, 4529, 4530, 4556, 4555
3731, 4114, 4115, 4141, 4140, 4530, 4531, 4557, 4556
3732, 4115, 4116, 4142, 4141, 4531, 4532, 4558, 4557
3733, 4116, 4117, 4143, 4142, 4532, 4533, 4559, 4558
3734, 4117, 4118, 4144, 4143, 4533, 4534, 4560, 4559
3735, 4118, 4119, 4145, 4144, 4534, 4535, 4561, 4560
3736, 4119, 4120, 4146, 4145, 4535, 4536, 4562, 4561
3737, 4120, 4121, 4147, 4146, 4536, 4537, 4563, 4562
3738, 4121, 4122, 4148, 4147, 4537, 4538, 4564, 4563
3739, 4122, 4123, 4149, 4148, 4538, 4539, 4565, 4564
3740, 4123, 4124, 4150, 4149, 4539, 4540, 4566, 4565
3741, 4124, 4125, 4151, 4150, 4540, 4541, 4567, 4566
3742, 4125, 4126, 4152, 4151, 4541, 4542, 4568, 4567
3743, 4126, 4127, 4153, 4152, 4542, 4543, 4569, 4568
3744, 4127, 4128, 4154, 4153, 4543, 4544, 4570, 4569
3745, 4128, 4129, 4155, 4154, 4544, 4545, 4571, 4570
3746, 4129, 4130, 4156, 4155, 4545, 4546, 4572, 4571
3747, 4130, 4131, 4157, 4156, 4546, 4547, 4573, 4572
3748, 4131, 4132, 4158, 4157, 4547, 4548, 4574, 4573
3749, 4132, 4133, 4159, 4158, 4548, 4549, 4575, 4574
3750, 4133, 4134, 4160, 4159, 4549, 4550, 4576, 4575
3751, 4161, 4162, 4188, 4187, 4577, 4578, 4604, 4603
3752, 4162, 4163, 4189, 4188, 4578, 4579, 4605, 4604
3753, 4163, 4164, 4190, 4189, 4579, 4580, 4606, 4605
3754, 4164, 4165, 4191, 4190, 4580, 4581, 4607, 4606
3755, 4165, 4166, 4192, 4191, 4581, 4582, 4608, 4607
3756, 4166, 4167, 4193, 4192, 4582, 4583, 4609, 4608
3757, 4167, 4168, 4194, 4193, 4583, 4584, 4610, 4609
3758, 4168, 4169, 4195, 4194, 4584, 4585, 4611, 4610
3759, 4169, 4170, 4196, 4195, 4585, 4586, 4612, 4611
3760, 4170, 4171, 4197, 4196, 4586, 4587, 4613, 4612
3761, 4171, 4172, 4198, 4197, 4587, 4588, 4614, 4613
3762, 4172, 4173, 4199, 4198, 4588, 4589, 4615, 4614
3763, 4173, 4174, 4200, 4199, 4589, 4590, 4616, 4615
3764, 4174, 4175, 4201, 4200, 4590, 4591, 4617, 4616
3765, 4175, 4176, 4202, 4201, 4591, 4592, 4618, 4617
3766, 4176, 4177, 4203, 4202, 4592, 4593, 4619, 4618
3767, 4177, 4178, 4204, 4203, 4593, 4594, 4620, 4619
3768, 4178, 4179, 4205, 4204, 4594, 4595, 4621, 4620
3769, 4179, 4180, 4206, 4205, 4595, 4596, 4622, 4621
3770, 4180, 4181, 4207, 4206, 4596, 4597, 4623, 4622
3771, 4181, 4182, 4208, 4207, 4597, 4598, 4624, 4623
3772, 4182, 4183, 4209, 4208, 4598, 4599, 4625, 4624
3773, 4183, 4184, 4210, 4209, 4599, 4600, 4626, 4625
3774, 4184, 4185, 4211, 4210, 4600, 4601, 4627, 4626
3775, 4185, 4186, 4212, 4211, 4601, 4602, 4628, 4627
3776, 4187, 4188, 4214, 4213, 4603, 4604, 4630, 4629
3777, 4188, 4189, 4215, 4214, 4604, 4605, 4631, 4630
3778, 4189, 4190, 4216, 4215, 4605, 4606, 4632, 4631
3779, 4190, 4191, 4217, 4216, 4606, 4607, 4633, 4632
3780, 4191, 4192, 4218, 4217, 4607, 4608, 4634, 4633
3781, 4192, 4193, 4219, 4218, 4608, 4609, 4635, 4634
3782, 4193, 4194, 4220, 4219, 4609, 4610, 4636, 4635
3783, 4194, 4195, 4221, 4220, 4610, 4611, 4637, 4636
3784, 4195, 4196, 4222, 4221, 4611, 4612, 4638, 4637
3785, 4196, 4197, 4223, 4222, 4612, 4613, 4639, 4638
3786, 4197, 4198, 4224, 4223, 4613, 4614, 4640, 4639
3787, 4198, 4199, 4225, 4224, 4614, 4615, 4641, 4640
3788, 4199, 4200, 4226, 4225, 4615, 4616, 4642, 4641
3789, 4200, 4201, 4227, 4226, 4616, 4617, 4643, 4642
3790, 4201, 4202, 4228, 4227, 4617, 4618, 4644, 4643
3791, 4202, 4203, 4229, 4228, 4618, 4619, 4645, 4644
3792, 4203, 4204, 4230, 4229, 4619, 4620, 4646, 4645
3793, 4204, 4205, 4231, 4230, 4620, 4621, 4647, 4646
3794, 4205, 4206, 4232, 4231, 4621, 4622, 4648, 4647
3795, 4206, 4207, 4233, 4232, 4622, 4623, 4649, 4648
3796, 4207, 4208, 4234, 4233, 4623, 4624, 4650, 4649
3797, 4208, 4209, 4235, 4234, 4624, 4625, 4651, 4650
3798, 4209, 4210, 4236, 4235, 4625, 4626, 4652, 4651
3799, 4210, 4211, 4237, 4236, 4626, 4627, 4653, 4652
3800, 4211, 4212, 4238, 4237, 4627, 4628, 4654, 4653
3801, 4213, 4214, 4240, 4239, 4629, 4630, 4656, 4655
3802, 4214, 4215, 4241, 4240, 4630, 4631, 4657, 4656
3803, 4215, 4216, 4242, 4241, 4631, 4632, 4658, 4657
3804, 4216, 4217, 4243, 4242, 4632, 4633, 4659, 4658
3805, 4217, 4218, 4244, 4243, 4633, 4634, 4660, 4659
3806, 4218, 4219, 4245, 4244, 4634, 4635, 4661, 4660
3807, 4219, 4220, 4246, 4245, 4635, 4636, 4662, 4661
3808, 4220, 4221, 4247, 4246, 4636, 4637, 4663, 4662
3809, 4221, 4222, 4248, 4247, 4637, 4638, 4664, 4663
3810, 4222, 4223, 4249, 4248, 4638, 4639, 4665, 4664
3811, 4223, 4224, 4250, 4249, 4639, 4640, 4666, 4665
3812, 4224, 4225, 4251, 4250, 4640, 4641, 4667, 4666
3813, 4225, 4226, 4252, 4251, 4641, 4642, 4668, 4667
3814, 4226, 4227, 4253, 4252, 4642, 4643, 4669, 4668
3815, 4227, 4228, 4254, 4253, 4643, 4644, 4670, 4669
3816, 4228, 4229, 4255, 4254, 4644, 4645, 4671, 4670
3817, 4229, 4230, 4256, 4255, 4645, 4646, 4672, 4671
3818, 4230, 4231, 4257, 4256, 4646, 4647, 4673, 4672
3819, 4231, 4232, 4258, 4257, 4647, 4648, 4674, 4673
3820, 4232, 4233, 4259, 4258, 4648, 4649, 4675, 4674
3821, 4233, 4234, 4260, 4259, 4649, 4650, 4676, 4675
3822, 4234, 4235, 4261, 4260, 4650, 4651, 4677, 4676
3823, 4235, 4236, 4262, 4261, 4651, 4652, 4678, 4677
3824, 4236, 4237, 4263, 4262, 4652, 4653, 4679, 4678
3825, 4237, 4238, 4264, 4263, 4653, 4654, 4680, 4679
3826, 4239, 4240, 4266, 4265, 4655, 4656, 4682, 4681
3827, 4240, 4241, 4267, 4266, 4656, 4657, 4683, 4682
3828, 4241, 4242, 4268, 4267, 4657, 4658, 4684, 4683
3829, 4242, 4243, 4269, 4268, 4658, 4659, 4685, 4684
3830, 4243, 4244, 4270, 4269, 4659, 4660, 4686, 4685
3831, 4244, 4245, 4271, 4270, 4660, 4661, 4687, 4686
3832, 4245, 4246, 4272, 4271, 4661, 4662, 4688, 4687
3833, 4246, 4247, 4273, 4272, 4662, 4663, 4689, 4688
3834, 4247, 4248, 4274, 4273, 4663, 4664, 4690, 4689
3835, 4248, 4249, 4275, 4274, 4664, 4665, 4691, 4690
3836, 4249, 4250, 4276, 4275, 4665, 4666, 4692, 4691
3837, 4250, 4251, 4277, 4276, 4666, 4667, 4693, 4692
3838, 4251, 4252, 4278, 4277, 4667, 4668, 4694, 4693
3839, 4252, 4253, 4279, 4278, 4668, 4669, 4695, 4694
3840, 4253, 4254, 4280, 4279, 4669, 4670, 4696, 4695
3841, 4254, 4255, 4281, 4280, 4670, 4671, 4697, 4696
3842, 4255, 4256, 4282, 4281, 4671, 4672, 4698, 4697
3843, 4256, 4257, 4283, 4282, 4672, 4673, 4699, 4698
3844, 4257, 4258, 4284, 4283, 4673, 4674, 4700, 4699
3845, 4258, 4259, 4285, 4284, 4674, 4675, 4701, 4700
3846, 4259, 4260, 4286, 4285, 4675, 4676, 4702, 4701
3847, 4260, 4261, 4287, 4286, 4676, 4677, 4703, 4702
3848, 4261, 4262, 4288, 4287, 4677, 4678, 4704, 4703
3849, 4262, 4263, 4289, 4288, 4678, 4679, 4705, 4704
3850, 4263, 4264, 4290, 4289, 4679, 4680, 4706, 4705
3851, 4265, 4266, 4292, 4291, 4681, 4682, 4708, 4707
3852, 4266, 4267, 4293, 4292, 4682, 4683, 4709, 4708
3853, 4267, 4268, 4294, 4293, 4683, 4684, 4710, 4709
3854, 4268, 4269, 4295, 4294, 4684, 4685, 4711, 4710
3855, 4269, 4270, 4296, 4295, 4685, 4686, 4712, 4711
3856, 4270, 4271, 4297, 4296, 4686, 4687, 4713, 4712
3857, 4271, 4272, 4298, 4297, 4687, 4688, 4714, 4713
3858, 4272, 4273, 4299, 4298, 4688, 4689, 4715, 4714
3859, 4273, 4274, 4300, 4299, 4689, 4690, 4716, 4715
3860, 4274, 4275, 4301, 4300, 4690, 4691, 4717, 4716
3861, 4275, 4276, 4302, 4301, 4691, 4692, 4718, 4717
3862, 4276, 4277, 4303, 4302, 4692, 4693, 4719, 4718
3863, 4277, 4278, 4304, 4303, 4693, 4694, 4720, 4719
3864, 4278, 4279, 4305, 4304, 4694, 4695, 4721, 4720
3865, 4279, 4280, 4306, 4305, 4695, 4696, 4722, 4721
3866, 4280, 4281, 4307, 4306, 4696, 4697, 4723, 4722
3867, 4281, 4282, 4308, 4307, 4697, 4698, 4724, 4723
3868, 4282, 4283, 4309, 4308, 4698, 4699, 4725, 4724
3869, 4283, 4284, 4310, 4309, 4699, 4700, 4726, 4725
3870, 4284, 4285, 4311, 4310, 4700, 4701, 4727, 4726
3871, 4285, 4286, 4312, 4311, 4701, 4702, 4728, 4727
3872, 4286, 4287, 4313, 4312, 4702, 4703, 4729, 4728
3873, 4287, 4288, 4314, 4313, 4703, 4704, 4730, 4729
3874, 4288, 4289, 4315, 4314, 4704, 4705, 4731, 4730
3875, 4289, 4290, 4316, 4315, 4705, 4706, 4732, 4731
3876, 4291, 4292, 4318, 4317, 4707, 4708, 4734, 4733
3877, 4292, 4293, 4319, 4318, 4708, 4709, 4735, 4734
3878, 4293, 4294, 4320, 4319, 4709, 4710, 4736, 4735
3879, 4294, 4295, 4321, 4320, 4710, 4711, 4737, 4736
3880, 4295, 4296, 4322, 4321, 4711, 4712, 4738, 4737
3881, 4296, 4297, 4323, 4322, 4712, 4713, 4739, 4738
3882, 4297, 4298, 4324, 4323, 4713, 4714, 4740, 4739
3883, 4298, 4299, 4325, 4324, 4714, 4715, 4741, 4740
3884, 4299, 4300, 4326, 4325, 4715, 4716, 4742, 4741
3885, 4300, 4301, 4327, 4326, 4716, 4717, 4743, 4742
3886, 4301, 4302, 4328, 4327, 4717, 4718, 4744, 4743
3887, 4302, 4303, 4329, 4328, 4718, 4719, 4745, 4744
3888, 4303, 4304, 4330, 4329, 4719, 4720, 4746, 4745
3889, 4304, 4305, 4331, 4330, 4720, 4721, 4747, 4746
3890, 4305, 4306, 4332, 4331, 4721, 4722, 4748, 4747
3891, 4306, 4307, 4333, 4332, 4722, 4723, 4749, 4748
3892, 4307, 4308, 4334, 4333, 4723, 4724, 4750, 4749
3893, 4308, 4309, 4335, 4334, 4724, 4725, 4751, 4750
3894, 4309, 4310, 4336, 4335, 4725, 4726, 4752, 4751
3895, 4310, 4311, 4337, 4336, 4726, 4727, 4753, 4752
3896, 4311, 4312, 4338, 4337, 4727, 4728, 4754, 4753
3897, 4312, 4313, 4339, 4338, 4728, 4729, 4755, 4754
3898, 4313, 4314, 4340, 4339, 4729, 4730, 4756, 4755
3899, 4314, 4315, 4341, 4340, 4730, 4731, 4757, 4756
3900, 4315, 4316, 4342, 4341, 4731, 4732, 4758, 4757
3901, 4317, 4318, 4344, 4343, 4733, 4734, 4760, 4759
3902, 4318, 4319, 4345, 4344, 4734, 4735, 4761, 4760
3903, 4319, 4320, 4346, 4345, 4735, 4736, 4762, 4761
3904, 4320, 4321, 4347, 4346, 4736, 4737, 4763, 4762
3905, 4321, 4322, 4348, 4347, 4737, 4738, 4764, 4763
3906, 4322, 4323, 4349, 4348, 4738, 4739, 4765, 4764
3907, 4323, 4324, 4350, 4349, 4739, 4740, 4766, 4765
3908, 4324, 4325, 4351, 4350, 4740, 4741, 4767, 4766
3909, 4325, 4326, 4352, 4351, 4741, 4742, 4768, 4767
3910, 4326, 4327, 4353, 4352, 4742, 4743, 4769, 4768
3911, 4327, 4328, 4354, 4353, 4743, 4744, 4770, 4769
3912, 4328, 4329, 4355, 4354, 4744, 4745, 4771, 4770
3913, 4329, 4330, 4356, 4355, 4745, 4746, 4772, 4771
3914, 4330, 4331, 4357, 4356, 4746, 4747, 4773, 4772
3915, 4331, 4332, 4358, 4357, 4747, 4748, 4774, 4773
3916, 4332, 4333, 4359, 4358, 4748, 4749, 4775, 4774
3917, 4333, 4334, 4360, 4359, 4749, 4750, 4776, 4775
3918, 4334, 4335, 4361, 4360, 4750, 4751, 4777, 4776
3919, 4335, 4336, 4362, 4361, 4751, 4752, 4778, 4777
3920, 4336, 4337, 4363, 4362, 4752, 4753, 4779, 4778
3921, 4337, 4338, 4364, 4363, 4753, 4754, 4780, 4779
3922, 4338, 4339, 4365, 4364, 4754, 4755, 4781, 4780
3923, 4339, 4340, 4366, 4365, 4755, 4756, 4782, 4781
3924, 4340, 4341, 4367, 4366, 4756, 4757, 4783, 4782
3925, 4341, 4342, 4368, 4367, 4757, 4758, 4784, 4783
3926, 4343, 4344, 4370, 4369, 4759, 4760, 4786, 4785
3927, 4344, 4345, 4371, 4370, 4760, 4761, 4787, 4786
3928, 4345, 4346, 4372, 4371, 4761, 4762, 4788, 4787
3929, 4346, 4347, 4373, 4372, 4762, 4763, 4789, 4788
3930, 4347, 4348, 4374, 4373, 4763, 4764, 4790, 4789
3931, 4348, 4349, 4375, 4374, 4764, 4765, 4791, 4790
3932, 4349, 4350, 4376, 4375, 4765, 4766, 4792, 4791
3933, 4350, 4351, 4377, 4376, 4766, 4767, 4793, 4792
3934, 4351, 4352, 4378, 4377, 4767, 4768, 4794, 4793
3935, 4352, 4353, 4379, 4378, 4768, 4769, 4795, 4794
3936, 4353, 4354, 4380, 4379, 4769, 4770, 4796, 4795
3937, 4354, 4355, 4381, 4380, 4770, 4771, 4797, 4796
3938, 4355, 4356, 4382, 4381, 4771, 4772, 4798, 4797
3939, 4356, 4357, 4383, 4382, 4772, 4773, 4799, 4798
3940, 4357, 4358, 4384, 4383, 4773, 4774, 4800, 4799
3941, 4358, 4359, 4385, 4384, 4774, 4775, 4801, 4800
3942, 4359, 4360, 4386, 4385, 4775, 4776, 4802, 4801
3943, 4360, 4361, 4387, 4386, 4776, 4777, 4803, 4802
3944, 4361, 4362, 4388, 4387, 4777, 4778, 4804, 4803
3945, 4362, 4363, 4389, 4388, 4778, 4779, 4805, 4804
3946, 4363, 4364, 4390, 4389, 4779, 4780, 4806, 4805
3947, 4364, 4365, 4391, 4390, 4780, 4781, 4807, 4806
3948, 4365, 4366, 4392, 4391, 4781, 4782, 4808, 4807
3949, 4366, 4367, 4393, 4392, 4782, 4783, 4809, 4808
3950, 4367, 4368, 4394, 4393, 4783, 4784, 4810, 4809
3951, 4369, 4370, 4396, 4395, 4785, 4786, 4812, 4811
3952, 4370, 4371, 4397, 4396, 4786, 4787, 4813, 4812
3953, 4371, 4372, 4398, 4397, 4787, 4788, 4814, 4813
3954, 4372, 4373, 4399, 4398, 4788, 4789, 4815, 4814
3955, 4373, 4374, 4400, 4399, 4789, 4790, 4816, 4815
3956, 4374, 4375, 4401, 4400, 4790, 4791, 4817, 4816
3957, 4375, 4376, 4402, 4401, 4791, 4792, 4818, 4817
3958, 4376, 4377, 4403, 4402, 4792, 4793, 4819, 4818
3959, 4377, 4378, 4404, 4403, 4793, 4794, 4820, 4819
3960, 4378, 4379, 4405, 4404, 4794, 4795, 4821, 4820
3961, 4379, 4380, 4406, 4405, 4795, 4796, 4822, 4821
3962, 4380, 4381, 4407, 4406, 4796, 4797, 4823, 4822
3963, 4381, 4382, 4408, 4407, 4797, 4798, 4824, 4823
3964, 4382, 4383, 4409, 4408, 4798, 4799, 4825, 4824
3965, 4383, 4384, 4410, 4409, 4799, 4800, 4826, 4825
3966, 4384, 4385, 4411, 4410, 4800, 4801, 4827, 4826
3967, 4385, 4386, 4412, 4411, 4801, 4802, 4828, 4827
3968, 4386, 4387, 4413, 4412, 4802, 4803, 4829, 4828
3969, 4387, 4388, 4414, 4413, 4803, 4804, 4830, 4829
3970, 4388, 4389, 4415, 4414, 4804, 4805, 4831, 4830
3971, 4389, 4390, 4416, 4415, 4805, 4806, 4832, 4831
3972, 4390, 4391, 4417, 4416, 4806, 4807, 4833, 4832
3973, 4391, 4392, 4418, 4417, 4807, 4808, 4834, 4833
3974, 4392, 4393, 4419, 4418, 4808, 4809, 4835, 4834
3975, 4393, 4394, 4420, 4419, 4809, 4810, 4836, 4835
3976, 4395, 4396, 4422, 4421, 4811, 4812, 4838, 4837
3977, 4396, 4397, 4423, 4422, 4812, 4813, 4839, 4838
3978, 4397, 4398, 4424, 4423, 4813, 4814, 4840, 4839
3979, 4398, 4399, 4425, 4424, 4814, 4815, 4841, 4840
3980, 4399, 4400, 4426, 4425, 4815, 4816, 4842, 4841
3981, 4400, 4401, 4427, 4426, 4816, 4817, 4843, 4842
3982, 4401, 4402, 4428, 4427, 4817, 4818, 4844, 4843
3983, 4402, 4403, 4429, 4428, 4818, 4819, 4845, 4844
3984, 4403, 4404, 4430, 4429, 4819, 4820, 4846, 4845
3985, 4404, 4405, 4431, 4430, 4820, 4821, 4847, 4846
3986, 4405, 4406, 4432, 4431, 4821, 4822, 4848, 4847
3987, 4406, 4407, 4433, 4432, 4822, 4823, 4849, 4848
3988, 4407, 4408, 4434, 4433, 4823, 4824, 4850, 4849
3989, 4408, 4409, 4435, 4434, 4824, 4825, 4851, 4850
3990, 4409, 4410, 4436, 4435, 4825, 4826, 4852, 4851
3991, 4410, 4411, 4437, 4436, 4826, 4827, 4853, 4852
3992, 4411, 4412, 4438, 4437, 4827, 4828, 4854, 4853
3993, 4412, 4413, 4439, 4438, 4828, 4829, 4855, 4854
3994, 4413, 4414, 4440, 4439, 4829, 4830, 4856, 4855
3995, 4414, 4415, 4441, 4440, 4830, 4831, 4857, 4856
3996, 4415, 4416, 4442, 4441, 4831, 4832, 4858, 4857
3997, 4416, 4417, 4443, 4442, 4832, 4833, 4859, 4858
3998, 4417, 4418, 4444, 4443, 4833, 4834, 4860, 4859
3999, 4418, 4419, 4445, 4444, 4834, 4835, 4861, 4860
4000, 4419, 4420, 4446, 4445, 4835, 4836, 4862, 4861
4001, 4421, 4422, 4448, 4447, 4837, 4838, 4864, 4863
4002, 4422, 4423, 4449, 4448, 4838, 4839, 4865, 4864
4003, 4423, 4424, 4450, 4449, 4839, 4840, 4866, 4865
4004, 4424, 4425, 4451, 4450, 4840, 4841, 4867, 4866
4005, 4425, 4426, 4452, 4451, 4841, 4842, 4868, 4867
4006, 4426, 4427, 4453, 4452, 4842, 4843, 4869, 4868
4007, 4427, 4428, 4454, 4453, 4843, 4844, 4870, 4869
4008, 4428, 4429, 4455, 4454, 4844, 4845, 4871, 4870
4009, 4429, 4430, 4456, 4455, 4845, 4846, 4872, 4871
4010, 4430, 4431, 4457, 4456, 4846, 4847, 4873, 4872
4011, 4431, 4432, 4458, 4457, 4847, 4848, 4874, 4873
4012, 4432, 4433, 4459, 4458, 4848, 4849, 4875, 4874
4013, 4433, 4434, 4460, 4459, 4849, 4850, 4876, 4875
4014, 4434, 4435, 4461, 4460, 4850, 4851, 4877, 4876
4015, 4435, 4436, 4462, 4461, 4851, 4852, 4878, 4877
4016, 4436, 4437, 4463, 4462, 4852, 4853, 4879, 4878
4017, 4437, 4438, 4464, 4463, 4853, 4854, 4880, 4879
4018, 4438, 4439, 4465, 4464, 4854, 4855, 4881, 4880
4019, 4439, 4440, 4466, 4465, 4855, 4856, 4882, 4881
4020, 4440, 4441, 4467, 4466, 4856, 4857, 4883, 4882
4021, 4441, 4442, 4468, 4467, 4857, 4858, 4884, 4883
4022, 4442, 4443, 4469, 4468, 4858, 4859, 4885, 4884
4023, 4443, 4444, 4470, 4469, 4859, 4860, 4886, 4885
4024, 4444, 4445, 4471, 4470, 4860, 4861, 4887, 4886
4025, 4445, 4446, 4472, 4471, 4861, 4862, 4888, 4887
4026, 4447, 4448, 4474, 4473, 4863, 4864, 4890, 4889
4027, 4448, 4449, 4475, 4474, 4864, 4865, 4891, 4890
4028, 4449, 4450, 4476, 4475, 4865, 4866, 4892, 4891
4029, 4450, 4451, 4477, 4476, 4866, 4867, 4893, 4892
4030, 4451, 4452, 4478, 4477, 4867, 4868, 4894, 4893
4031, 4452, 4453, 4479, 4478, 4868, 4869, 4895, 4894
4032, 4453, 4454, 4480, 4479, 4869, 4870, 4896, 4895
4033, 4454, 4455, 4481, 4480, 4870, 4871, 4897, 4896
4034, 4455, 4456, 4482, 4481, 4871, 4872, 4898, 4897
4035, 4456, 4457, 4483, 4482, 4872, 4873, 4899, 4898
4036, 4457, 4458, 4484, 4483, 4873, 4874, 4900, 4899
4037, 4458, 4459, 4485, 4484, 4874, 4875, 4901, 4900
4038, 4459, 4460, 4486, 4485, 4875, 4876, 4902, 4901
4039, 4460, 4461, 4487, 4486, 4876, 4877, 4903, 4902
4040, 4461, 4462, 4488, 4487, 4877, 4878, 4904, 4903
4041, 4462, 4463, 4489, 4488, 4878, 4879, 4905, 4904
4042, 4463, 4464, 4490, 4489, 4879, 4880, 4906, 4905
4043, 4464, 4465, 4491, 4490, 4880, 4881, 4907, 4906
4044, 4465, 4466, 4492, 4491, 4881, 4882, 4908, 4907
4045, 4466, 4467, 4493, 4492, 4882, 4883, 4909, 4908
4046, 4467, 4468, 4494, 4493, 4883, 4884, 4910, 4909
4047, 4468, 4469, 4495, 4494, 4884, 4885, 4911, 4910
4048, 4469, 4470, 4496, 4495, 4885, 4886, 4912, 4911
4049, 4470, 4471, 4497, 4496, 4886, 4887, 4913, 4912
4050, 4471, 4472, 4498, 4497, 4887, 4888, 4914, 4913
4051, 4473, 4474, 4500, 4499, 4889, 4890, 4916, 4915
4052, 4474, 4475, 4501, 4500, 4890, 4891, 4917, 4916
4053, 4475, 4476, 4502, 4501, 4891, 4892, 4918, 4917
4054, 4476, 4477, 4503, 4502, 4892, 4893, 4919, 4918
4055, 4477, 4478, 4504, 4503, 4893, 4894, 4920, 4919
4056, 4478, 4479, 4505, 4504, 4894, 4895, 4921, 4920
4057, 4479, 4480, 4506, 4505, 4895, 4896, 4922, 4921
4058, 4480, 4481, 4507, 4506, 4896, 4897, 4923, 4922
4059, 4481, 4482, 4508, 4507, 4897, 4898, 4924, 4923
4060, 4482, 4483, 4509, 4508, 4898, 4899, 4925, 4924
4061, 4483, 4484, 4510, 4509, 4899, 4900, 4926, 4925
4062, 4484, 4485, 4511, 4510, 4900, 4901, 4927, 4926
4063, 4485, 4486, 4512, 4511, 4901, 4902, 4928, 4927
4064, 4486, 4487, 4513, 4512, 4902, 4903, 4929, 4928
4065, 4487, 4488, 4514, 4513, 4903, 4904, 4930, 4929
4066, 4488, 4489, 4515, 4514, 4904, 4905, 4931, 4930
4067, 4489, 4490, 4516, 4515, 4905, 4906, 4932, 4931
4068, 4490, 4491, 4517, 4516, 4906, 4907, 4933, 4932
4069, 4491, 4492, 4518, 4517, 4907, 4908, 4934, 4933
4070, 4492, 4493, 4519, 4518, 4908, 4909, 4935, 4934
4071, 4493, 4494, 4520, 4519, 4909, 4910, 4936, 4935
4072, 4494, 4495, 4521, 4520, 4910, 4911, 4937, 4936
4073, 4495, 4496, 4522, 4521, 4911, 4912, 4938, 4937
4074, 4496, 4497, 4523, 4522, 4912, 4913, 4939, 4938
4075, 4497, 4498, 4524, 4523, 4913, 4914, 4940, 4939
4076, 4499, 4500, 4526, 4525, 4915, 4916, 4942, 4941
4077, 4500, 4501, 4527, 4526, 4916, 4917, 4943, 4942
4078, 4501, 4502, 4528, 4527, 4917, 4918, 4944, 4943
4079, 4502, 4503, 4529, 4528, 4918, 4919, 4945, 4944
4080, 4503, 4504, 4530, 4529, 4919, 4920, 4946, 4945
4081, 4504, 4505, 4531, 4530, 4920, 4921, 4947, 4946
4082, 4505, 4506, 4532, 4531, 4921, 4922, 4948, 4947
4083, 4506, 4507, 4533, 4532, 4922, 4923, 4949, 4948
4084, 4507, 4508, 4534, 4533, 4923, 4924, 4950, 4949
4085, 4508, 4509, 4535, 4534, 4924, 4925, 4951, 4950
4086, 4509, 4510, 4536, 4535, 4925, 4926, 4952, 4951
4087, 4510, 4511, 4537, 4536, 4926, 4927, 4953, 4952
4088, 4511, 4512, 4538, 4537, 4927, 4928, 4954, 4953
4089, 4512, 4513, 4539, 4538, 4928, 4929, 4955, 4954
4090, 4513, 4514, 4540, 4539, 4929, 4930, 4956, 4955
4091, 4514, 4515, 4541, 4540, 4930, 4931, 4957, 4956
4092, 4515, 4516, 4542, 4541, 4931, 4932, 4958, 4957
4093, 4516, 4517, 4543, 4542, 4932, 4933, 4959, 4958
4094, 4517, 4518, 4544, 4543, 4933, 4934, 4960, 4959
4095, 4518, 4519, 4545, 4544, 4934, 4935, 4961, 4960
4096, 4519, 4520, 4546, 4545, 4935, 4936, 4962, 4961
4097, 4520, 4521, 4547, 4546, 4936, 4937, 4963, 4962
4098, 4521, 4522, 4548, 4547, 4937, 4938, 4964, 4963
4099, 4522, 4523, 4549, 4548, 4938, 4939, 4965, 4964
4100, 4523, 4524, 4550, 4549, 4939, 4940, 4966, 4965
4101, 4525, 4526, 4552, 4551, 4941, 4942, 4968, 4967
4102, 4526, 4527, 4553, 4552, 4942, 4943, 4969, 4968
4103, 4527, 4528, 4554, 4553, 4943, 4944, 4970, 4969
4104, 4528, 4529, 4555, 4554, 4944, 4945, 4971, 4970
4105, 4529, 4530, 4556, 4555, 4945, 4946, 4972, 4971
4106, 4530, 4531, 4557, 4556, 4946, 4947, 4973, 4972
4107, 4531, 4532, 4558, 4557, 4947, 4948, 4974, 4973
4108, 4532, 4533, 4559, 4558, 4948, 4949, 4975, 4974
4109, 4533, 4534, 4560, 4559, 4949, 4950, 4976, 4975
4110, 4534, 4535, 4561, 4560, 4950, 4951, 4977, 4976
4111, 4535, 4536, 4562, 4561, 4951, 4952, 4978, 4977
4112, 4536, 4537, 4563, 4562, 4952, 4953, 4979, 4978
4113, 4537, 4538, 4564, 4563, 4953, 4954, 4980, 4979
4114, 4538, 4539, 4565, 4564, 4954, 4955, 4981, 4980
4115, 4539, 4540, 4566, 4565, 4955, 4956, 4982, 4981
4116, 4540, 4541, 4567, 4566, 4956, 4957, 4983, 4982
4117, 4541, 4542, 4568, 4567, 4957, 4958, 4984, 4983
4118, 4542, 4543, 4569, 4568, 4958, 4959, 4985, 4984
4119, 4543, 4544, 4570, 4569, 4959, 4960, 4986, 4985
4120, 4544, 4545, 4571, 4570, 4960, 4961, 4987, 4986
4121, 4545, 4546, 4572, 4571, 4961, 4962, 4988, 4987
4122, 4546, 4547, 4573, 4572, 4962, 4963, 4989, 4988
4123, 4547, 4548, 4574, 4573, 4963, 4964, 4990, 4989
4124, 4548, 4549, 4575, 4574, 4964, 4965, 4991, 4990
4125, 4549, 4550, 4576, 4575, 4965, 4966, 4992, 4991
